# PAPER AV1222
# Co-editor: Leonid Aslanov
# ACCEPTED
#
# NEW STRUCTURE factors FACTORS REQUIRED: YES
# NEW FIGURES REQUIRED: YES, Fig. 1
# COMMENTS: 
#
#
#
#
#


data_global
loop_
_geom_extra_tableB_col_1
_geom_extra_tableB_col_2

 dfgdgf dfgdg
 dfgdfgfdg dfgdgdfg

_geom_extra_table_head_B
;
fsdgdfgdfgdgdg
;
loop_
_geom_extra_tableA_col_1
_geom_extra_tableA_col_2

 a b
 s s



_geom_extra_table_head_A
;
heading
;

_geom_table_headnote_A
;
headnote

And another
;

_geom_table_footnote_A
;
footnote

and another
;


_audit_update_record   
;
2008-03-12 # Formatted by IUCr publCIF

2011-07-06 # Formatted by IUCr publCIF system
;
 


#==================================================

_audit_creation_method               'form.cif (version 2.0)'

# PROCESSING SUMMARY (IUCr Office Use Only)

_journal_data_validation_number   ?
 _journal_date_recd_electronic 2004-11-08
 _journal_date_to_coeditor
            ?
_journal_date_from_coeditor          ?
_journal_date_accepted               2005-01-04
_journal_date_printers_first         ?
_journal_date_printers_final         ?
_journal_date_proofs_out             ?
_journal_date_proofs_in              ?
_journal_coeditor_name               ?
_journal_coeditor_code             AV1222
_journal_coeditor_notes
?
_journal_techeditor_code       
 e003400
_iucr_compatibility_tag          ACTA95
_journal_techeditor_notes
?
_journal_coden_ASTM                  ?
_journal_name_full                   ?
_journal_year                        ?
_journal_volume                      ?
_journal_issue                       ?
_journal_page_first                  ?
_journal_page_last                   ?
_journal_paper_category              FM
_journal_suppl_publ_number           ?
_journal_suppl_publ_pages            ?

loop_
_journal_index_type
_journal_index_term
_journal_index_subterm
I
; 
[Cu$_{2}$(OH)$_{2}$(C$_{2}$H$_{3}$N)$_{2}$(C$_{21}$H$_{22}$N$_{2}$)$_{2}$](ClO$%
_{4}$)$_{2}$
;   .
O 'C$_{46}$H$_{52}$Cu$_{2}$N$_{6}$O$_{2}$$\sp{2+}$.2ClO$_{4}$$\sp{-}$' .
S
; 
Di-$\mu$-hydro\-xo-bis{}{$\{$}(aceto\-nitrile)[{\bi{}N}-benzyl-{\bi{}N}-(6-meth%
yl-2-\kern0ptpyridyl\-methyl)\-benzyl\-amine-$\kappa$$^{2}${\bi{}N}$^{\prime}$,%
{\bi{}N}$^{\prime}$$^{\prime}$]copper({II}){}{$\}$} diperchlorate 
;   .
S    '   '                                    .


#==============================================================================

# SUBMISSION DETAILS



_publ_contact_author_name        'Andres Vega'
_publ_contact_author_address
;
Departamento de Quimica
Facultad de Ciencias
Universidad de Tarapaca
Av. General Velasquez 1775
Arica
Chile
;
_publ_contact_author_email       avegac@uta.cl
_publ_contact_author_phone       '(56 58)205446'
_publ_contact_author_fax         '(56 58)205424'

_publ_contact_letter
; Please Consider this submission as a regular structure paper for Acta C
;

_publ_requested_journal              'Acta Cryst C'
_publ_requested_category             FM

#==============================================================================

# TITLE AND AUTHOR LIST

_publ_section_title
;
Di-\m-hydroxo-bis{(acetonitrile)[<i>N</i>-benzyl-<i>N</i>-(6-methyl-2-
pyridylmethyl)benzylamine-\k^2^<i>N</i>',<i>N</i>'']copper(II)} \a \b \c \d \e
\f \g \h \i \k \l \m \n \o \p \q \r \s \t \u \w \x \y \z \a \b \c \d \e \f \g
\h \i \k \l \m \n \o \p \q \r \s \t \u \w \x \y \zA B C \D E \F \G H I K \L
<i>M</i> N O \P \Q <i>R</i> \S T \U \W \X \Y <i>Z</i>\\langle \\rangle C\\ddb 
C\\db C\\tb  C...C \\rightarrow \\leftarrow +- -+ \\times \\neq \\simeq \\sim 
\\infty \=0 ^\=1^ \=2 \=3 \=4 \=5 \=6 \=7 \=8 \=9 diperchlorate
;
_publ_section_title_footnote 
;
 boo
;


#==============================================================================
# TEXT


# Related literature generated by publCIF 2007-03-28
_publ_section_related_literature
;
For related literature, see: Brooker <i>et al.</i> (1996); Du <i>et
al.</i>
(2003); Gentschev <i>et al.</i> (2000); Karlin & Zuberbuhler
(1999); Kitajima
& Moro-oka (1994); Kopf & Karlin (2000); Murthy (2001);
Rojas <i>et al.</i>
(2004); Ruiz <i>et al.</i> (1997); Suzuki <i>et al.</i>
(2000).
;

_publ_section_abstract
;
The title compound, [Cu~2~(OH)~2~(C~2~H~3~N)~2~(C~21~H~22~N~2~)~2~](ClO~4~)~2~,
corresponds to a copper(II) dimer, Selected bond lengths and angles for (I)
are given in Table 1. As shown in Fig. 1, .... where the metal centres are
\m~2~-bridged by hydroxo groups. Coordination of each copper(II) centre is a
slightly distorted square-based pyramid, with two N atoms from
<i>N</i>-ben<i>zyl</i>-<i>N</i>- (6-methyl-2-pyridylmethyl)benzylamine
(BiBzMePMA) and two hydroxo O atoms occupying the basal positions, and the
acetonitrile N atom at the apical &square; position. The dim\\&ser is
\=1centrosymmetric, with a crystallographic inversion centre midway between
the two Cu atoms [Cu...Cu 2.9522(9) \%A]

\a \b \c \d \e \f \g \h \i \k \l \m \n \o \p \q \r \s \t \u \w \x \y \z

<b>\a \b \c \d \e \f \g \h \i \k \l \m \n \o \p \q \r \s \t \u \w \x \y \z</b>

A B C \D E \F \G H I K \L <i>M</i> N O \P \Q <i>R</i> \S T \U \W \X \Y <i>Z</i>

\\langle \\rangle  \\dagger C\\db C\\tb C...C \\rightarrow \\leftarrow +- -+
\\times \\neq \\simeq \\sim \\infty

\=0 ^\=1^ \=2 \=3 \=4 \=5 \=6 \=7 \=8 \=9
;


_publ_section_comment
;
The coordination custom customizably customizable customized customizing
customisably customisable customized customizing chemistry of copper complexes
is a subject of continuing importance, mainly in relation to the structure and
reactivity of the active site in copper-containing metalloproteins. The
reactivity of copper(I) complexes towards molecular oxygen is also relevant to
the utilization of atmospheric oxygen in stoichiometric or catalytic
oxidations of organic substrates mediated by copper complexes (Karlin <i>et
al.</i>, 1999), as well as to understanding the mechanism of dioxygen
utilization by copper proteins (Karlin & Zuberbuhler, 1999; Kopf &
Karlin,
2000; Solomon <i>et al.</i>, 1996). Recent advances (Kitajima &
Moro-oka,
1994; Suzuki <i>et al.</i>, 2000) have shown that the structure
and reactivity
of copper(I) complexes are significantly modified by slight perturbations in
the supporting ligands.

\\object_13_tex

Recently, we reported that the oxygenation of a methanol solution of the
copper(I) complex with the bidentate ligand
dibenzyl-(6-methyl-2-pyridylmethyl)amine (BiBzMePMA) at room temperature leads
to the bis-methoxo-bridged copper(II) complex
[Cu(BiBzMePMA)]~2~-\m~2~(OCH~3~)~2~, which has been fully characterized, both
magnetically and structurally (Rojas <i>et al.</i>, 2004). Here, we
report the
crystal structure of the analogous bis-hydroxo-bridged compound,
[Cu(BiBzMePMA)]~2~-\m~2~(OH)~2~, (I), resulting from the same synthetic
procedure, but in the presence of traces of water in the solvent.

The molecular structure of complex (I) is defined by two [CuL]^2+^ units [where
<i>L</i> is dibenzyl-(6-methyl-2-pyridylmethyl)amine], \m~2~-bridged by two
hydroxyl groups, in such a way as to define a central N~2~CuO~2~CuN~2~ core.
Additionally, there is an acetonitrile (CH~3~C\\tb N) molecule completing
pentacoordination of each Cu atom, thus defining a slightly distorted
square-based pyramidal coordination for the metal centres. The basal square of
the pyramid is defined by two amine N atoms (N1 and N2) and two hydroxyl O
atoms [O1 and O1^i^; symmetry code: (i) 1 - <i>x</i>, -<i>y</i>, 2 - <i>z</i>
Please check added symmetry code], while the acetonitrile atom N3 occupies the
apical position. This N atom deviates by 3.7\% from the perpendicular to the
basal-plane position.

The Cu---N~acetonitrile~ distance is 2.476(5) \%A, a rather long value for this
kind of bond, which is usually in the range 2.00--2.50 \%A. A shorter value of
about 2 \%A has been described for [Cu~2~(<i>L</i>~2~)(CH~3~CN)~2~]^4+^, where
<i>L</i> is tetrakis(1-methylimidazol-2-ylmethyl)-2-hydroxy-1,3-diaminopropane
(Gentschev <i>et al.</i>, 2000), while a distance of 2.322(6) \%A has
been
described for [Cu~2~(\m-oxalato)(dipyridylamino)~2~(CH~3~CN)~2~](ClO~4~)~2~
(Du <i>et al.</i>, 2003). The linear acetonitrile molecule defines an
angle of
24.8\% with the Cu---N3 line [Cu---N3---C22 155.2(4)\%], which can probably be
ascribed to packing effects (Murthy <i>et al.</i>, 2001).

The two edge-sharing pyramids have their apical acetonitrile N atoms lying on
opposite sides of the CuO~2~Cu plane, in a <i>trans</i> arrangement, as
required by the inversion centre at the middle of the Cu...Cu distance. A
<i>cis</i> arrangement was found in the macrocyclic complex [Cu~2~L(CH~3~C\\tb
N)~2~], where <i>L</i> is
3,7,10,11,14,18,21,22-octaazatricyclo[18.2.2.2^9,12^]-hexacosa-
1(22),2,7,9,11,13,18,20,23,25-decaene (Brooker <i>et al.</i>, 1996).

The Cu...Cu distance is 2.9522(9) \%A, a rather short value for this kind of
complex (Rojas <i>et al.</i>, 2004). Consistently, the Cu---O---Cu
angle is
100.24(12)\%. The atom sequence Cu---O1---Cu^i^---O1^i^ is a rather regular
parallogram, with sides of about 1.92 \%A. The Cu---O1 and Cu---O1^i^
distances are 1.923(3) and 1.920(3) \%A, respectively. The hydroxy H atoms
deviate from the Cu--O plane by 45.5\%, a value which can be affected by
packing effects, <i>i.e.</i> interaction between the hydroxy H atoms and the O
atoms of the perchlorate counteranion. The distances between atom H1 and the
partially occupied perchlorate atoms O5A and O5B are 1.974 and 2.196 \%A,
respectively. The deviation of the hydroxy H atom from planarity has been
described as an important factor which determines the magnetic coupling
exchange of binuclear copper(II) complexes (Ruiz <i>et al.</i>, 1997).
;

_publ_section_acknowledgements
;
Financial support from project FONDECYT 1020101 is gratefully acknowledged. DR
acknowledges CONICYT for a doctoral scholarship. The authors gratefully
acknowledge Fundaci\'on Andes for the purchase of the area-detector
diffractometer currently operating at the University of Chile.
;

_publ_section_references
;
Brooker, S., Kelly, R. J., Moubaraki, B. & Murray, K. S. (1996).
<i>Chem. Commun.</i> pp. 2579???????. Please provide missing final page
number.

Bruker  (1999). <i>SAINT-NT</i> (Version 6.02) and <i>SHELXTL-NT</i>
(Version 6.10). Bruker AXS Inc., Madison, Wisconsin, USA.

Bruker  (2001). <i>SMART-NT</i>. Version 5.624. Bruker AXS Inc.,
Madison, Wisconsin, USA.

Du, M., Guo, Y.-M., Chen, S.-T., Bu, X.-H. & Ribas, J. (2003).
<i>Inorg. Chim. Acta</i>, <b>346</b>, 207--214.

Gentschev, P., Moller, N. & Krebs, B. (2000). <i>ChemPhysChem</i>,
<b>300--302</b>, 442--452.

Karlin, K. D. & Zuberbuhler, A. D. (1999). <i>Bioinorganic Catalysis.
Second edition, revised and expanded, edited by J. Reedik & E. Bouwman</i>,
pp. 469--534. New York: Marcel Dekker.

Kitajima, N. & Moro-oka, Y. (1994). <i>Chem. Rev.</i> <b>94</b>,
737--757.

Kopf, M. A. & Karlin, K. D. (2000). <i>Biomimetic Oxidations</i>,
edited by B. Meunier, ch. 7, pp. 309-362. London: Imperial College Press.

Murthy <i>et al.</i>  (2001). Please provide full details for missing
reference.

Rojas, D., Garc\'ia, A. M., Vega, A., Moreno, Y., Venegas-Yazigi, D.,
Garland, M. T. & Manzur, J. (2004). <i>Inorg. Chem.</i> <b>43</b>, 6324--6330.

Ruiz, E., Alemany, P., Alvarez, S. & Cano, J. (1997). <i>J. Am. Chem.
Soc.</i> <b>119</b>, 1297--1303.

Solomon, E. I., Sundaram, U. M. & Machonkin, T. E. (1996). <i>Chem.
Rev.</i> <b>96</b>, 2563--2605.

Suzuki, M., Furutachi, H. & Otawa, H. (2000). <i>Coord. Chem. Rev.</i>
<b>200</b>, 105--129.
;

_publ_section_figure_captions
;
Fig. 1. The molecular structure of (I), showing part of the atom-numbering
scheme. Displacement ellipsoids are plotted at the 33% probability level and
hydroxy H atoms are shown as small spheres of arbitrary radii. The remaining H
atoms and the perchlorate counteranion have been omitted for clarity.
[Symmetry code: (i) 1 - <i>x</i>, -<i>y</i>, 2 - <i>z</i>.]
;

_publ_section_exptl_prep
;
Cu(CH~3~C\\tb N)~4~(ClO~4~) (1 mmol) was reacted with
dibenzyl-(6-methyl-2-pyridylmethyl)amine (1 mmol) in moist methanol to give
the copper(I) complex which, on % reaction with oxygen, afforded the title
dinuclear bis-hydroxo-bridged copper(II) complex. X-ray diffraction quality
crystals of (I) were obtained by recrystallization from an
acetonitrile--methanol mixture (Ratio?).
;

_publ_section_exptl_refinement
;
During the last stages of refinement, a certain disorder of the perchlorate O
atoms was evident. This was modelled considering two partially occupied
positions for the perchlorate anion, with occupancy factors of 0.60 and 0.40,
respectively. All the Cl---O distances in each perchlorate position were set
equal to common parameters, which were refined and finally set as 1.39 and
1.43 \%A, respectively. The H atoms of the organic amine were introduced in
calculated positions and then refined using the riding model, with C---H
distances of 0.93 \%A and with <i>U</i>~iso~(H) = 1.2<i>U</i>~eq~(C). The
hydroxy H atom was located by difference synthesis during the last stages of
the structure completion. Its coordinates were not subsequently refined.
;

#==============================================================================

data_I
 
_audit_creation_method            SHELXL97 
_chemical_name_systematic 
;
Di-\m-hydroxo-bis{(acetonitrile)[<i>N</i>-benzyl-<i>N</i>-(6-methyl-2-
pyridylmethyl)benzylamine-\k^2^<i>N</i>',<i>N</i>'']copper(II)} diperchlorate
;
 
_chemical_name_common             ?
_chemical_melting_point           ?
_chemical_formula_iupac    '[Cu2 (O H)2 (C2 H3 N1)2 (C21 H22 N2)2] (Cl O4)2'
_chemical_formula_moiety          'C46 H52 Cu2 N6 O2 2+ , 2Cl O4 -'
_chemical_formula_sum             'C46 H52 Cl2 Cu2 N6 O10'
_chemical_formula_weight          1046.94

 
loop_ 
 _atom_type_symbol 
 _atom_type_description 
 _atom_type_scat_dispersion_real 
 _atom_type_scat_dispersion_imag 
 _atom_type_scat_source 
 'C'  'C'   0.0033   0.0016 
 'International Tables Vol C Tables 4.2.6.8 and 6.1.1.4' 
 'H'  'H'   0.0000   0.0000 
 'International Tables Vol C Tables 4.2.6.8 and 6.1.1.4' 
 'N'  'N'   0.0061   0.0033 
 'International Tables Vol C Tables 4.2.6.8 and 6.1.1.4' 
 'O'  'O'   0.0106   0.0060 
 'International Tables Vol C Tables 4.2.6.8 and 6.1.1.4' 
 'Cl'  'Cl'   0.1484   0.1585 
 'International Tables Vol C Tables 4.2.6.8 and 6.1.1.4' 
 'Cu'  'Cu'   0.3201   1.2651 
 'International Tables Vol C Tables 4.2.6.8 and 6.1.1.4' 
 

_symmetry_cell_setting            monoclinic
_symmetry_space_group_name_H-M    'P 21/c'
#_symmetry_space_group_name_Hall   '-P 2ybc'
 
loop_ 
 _space_group_symop_operation_xyz
 'x, y, z' 
 '-x, y+1/2, -z+1/2' 
 '-x, -y, -z' 
 'x, -y-1/2, z-1/2' 
 

_cell_length_a                    10.1453(10) 
_cell_length_b                    20.0868(19) 
_cell_length_c                    12.0925(12) 
_cell_angle_alpha                 90.00 
_cell_angle_beta                  105.193(2) 
_cell_angle_gamma                 90.00 
_cell_volume                      2378.2(4) 
_cell_formula_units_Z             2 
_cell_measurement_temperature     571(2) 
_cell_measurement_reflns_used     3378 
_cell_measurement_theta_min       4.628 
_cell_measurement_theta_max       46.691 
 
_exptl_crystal_description        prism
_exptl_crystal_colour             blue
_exptl_crystal_size_max           0.55
_exptl_crystal_size_mid           0.55
_exptl_crystal_size_min           0.45
_exptl_crystal_density_meas       ? 
_exptl_crystal_density_diffrn     1.462 
_exptl_crystal_density_method     'not measured' 
_exptl_crystal_F_000              1084 
_exptl_absorpt_coefficient_mu     1.070 
_exptl_absorpt_correction_type    
refdelf
_exptl_absorpt_correction_T_min   0.572
_exptl_absorpt_correction_T_max   0.618
_exptl_absorpt_process_details    '(SADABS in SAINT-NT; Bruker, 1999)'
 
_exptl_special_details 
;

;

 
_diffrn_ambient_temperature       571(2.1) 
_diffrn_radiation_wavelength      0.71073 
_diffrn_radiation_type            neutron
_diffrn_radiation_source          'fine-focus sealed tube' 
_diffrn_radiation_monochromator   graphite 
_diffrn_measurement_device_type  'Siemens SMART CCD area-detector'
_diffrn_measurement_method       '\f and \w'
_diffrn_detector_area_resol_mean  ? 
_diffrn_standards_number          0 
_diffrn_standards_interval_count  ? 
_diffrn_standards_interval_time   ? 
_diffrn_standards_decay_%         0 
_diffrn_reflns_number             12077 
_diffrn_reflns_av_R_equivalents   0.0301 
_diffrn_reflns_av_sigmaI/netI     0.0420 
_diffrn_reflns_limit_h_min       -11 
_diffrn_reflns_limit_h_max        12 
_diffrn_reflns_limit_k_min       -23 
_diffrn_reflns_limit_k_max        23 
_diffrn_reflns_limit_l_min       -14 
_diffrn_reflns_limit_l_max        12 
_diffrn_reflns_theta_min          2.02 
_diffrn_reflns_theta_max          15.10 
_reflns_number_total              4218 
_reflns_number_gt                 3006 
_reflns_threshold_expression      I>2\s(I) 


_computing_data_collection       'SMART-NT (Bruker & Me, 2001)'
_computing_data_reduction        'SAINT-NT (Bruker, 1999)'
_computing_structure_solution    'SHELXTL-NT (Bruker, 1999)'
_computing_structure_refinement  'SHELXTL-NT'
_computing_molecular_graphics    'SHELXTL-NT'
_computing_publication_material  'SHELXTL-NT'


_refine_special_details 
;
Refinement of <i>F</i>^2^ against ALL reflections. The weighted <i>R</i>-factor
<i>wR</i> and goodness of fit <i>S</i> are based on <i>F</i>^2^, conventional
<i>R</i>-factors <i>R</i> are based on <i>F</i>, with <i>F</i> set to zero for
negative <i>F</i>^2^. The threshold expression of <i>F</i>^2^ >
\s(<i>F</i>^2^) is used only for calculating <i>R</i>-factors(gt) <i>etc</i>.
and is not relevant to the choice of reflections for refinement.
<i>R</i>-factors based on <i>F</i>^2^ are statistically about twice as large
as those based on <i>F</i>, and <i>R</i>-- factors based on ALL data will be
even larger.
; 
 
_refine_ls_structure_factor_coef  Fsqd  
_refine_ls_matrix_type            full 
_refine_ls_weighting_scheme       calc  
_refine_ls_weighting_details 
 'calc w = 1/[\s^2^(Fo^2^)+(0.1158P)^2^] where P=(Fo^2^+2Fc^2^)/3' 
_atom_sites_solution_primary      direct 
_atom_sites_solution_secondary    difmapx 
_atom_sites_solution_hydrogens    mixed 
_refine_ls_hydrogen_treatment     constr 
_refine_ls_extinction_method      none 
_refine_ls_extinction_coef        ? 
_refine_ls_number_reflns          4218 
_refine_ls_number_parameters      299x 
_refine_ls_number_restraints      -8 
_refine_ls_R_factor_all           0.0773 
_refine_ls_R_factor_gt            0.0571 
_refine_ls_wR_factor_ref          0.1826 
_refine_ls_wR_factor_gt           0.1692 
_refine_ls_goodness_of_fit_ref    1.040 
_refine_ls_restrained_S_all       1.039 
_refine_ls_shift/su_max           0.2100 
_refine_ls_shift/su_mean          0.000 

 
loop_ 
 _atom_site_label 
 _atom_site_type_symbol 
 _atom_site_fract_x 
 _atom_site_fract_y 
 _atom_site_fract_z 
 _atom_site_U_iso_or_equiv 
 _atom_site_adp_type 
 _atom_site_occupancy 
 _atom_site_symmetry_multiplicity 
 _atom_site_calc_flag 
 _atom_site_refinement_flags 
 _atom_site_disorder_assembly 
 _atom_site_disorder_group 
Cu Cu 0.39369(5) -0.00309(2) 0.89022(4) 0.0369(2) Uani 1 1 d . . . 
O1 O 0.5473(3) 0.05049(14) 0.9675(2) 0.0431(7) Uani 1 1 d . . . 
H1 H 0.6163 0.0577 0.9285 0.10(2) Uiso 1 1 d . . . 
N1 N 0.2476(4) -0.06543(16) 0.7961(3) 0.0402(8) Uani 1 1 d . . . 
C1 C 0.3294(6) -0.1707(2) 0.8914(5) 0.0691(15) Uani 1 1 d . . . 
H1A H 0.4164 -0.1487 0.9096 0.104 Uiso 1 1 calc R . . 
H1B H 0.3387 -0.2145 0.8626 0.104 Uiso 1 1 calc R . . 
H1C H 0.2973 -0.1740 0.9591 0.104 Uiso 1 1 calc R . . 
C2 C 0.2299(5) -0.1318(2) 0.8028(4) 0.0490(11) Uani 1 1 d . . . 
C3 C 0.1183(6) -0.1628(3) 0.7287(5) 0.0651(15) Uani 1 1 d . . . 
H3 H 0.1071 -0.2086 0.7333 0.078 Uiso 1 1 calc R . . 
C4 C 0.0259(6) -0.1268(3) 0.6500(5) 0.0709(16) Uani 1 1 d . . . 
H4 H -0.0502 -0.1474 0.6026 0.085 Uiso 1 1 calc R . . 
C5 C 0.0461(5) -0.0597(3) 0.6412(4) 0.0596(14) Uani 1 1 d . . . 
H5 H -0.0156 -0.0341 0.5874 0.072 Uiso 1 1 calc R . . 
C6 C 0.1585(4) -0.0310(2) 0.7130(4) 0.0430(11) Uani 1 1 d . . . 
C7 C 0.1885(4) 0.0415(2) 0.7032(4) 0.0437(11) Uani 1 1 d . . . 
H7A H 0.1569 0.0550 0.6237 0.052 Uiso 1 1 calc R . . 
H7B H 0.1387 0.0672 0.7469 0.052 Uiso 1 1 calc R . . 
N2 N 0.3366(3) 0.05635(16) 0.7457(3) 0.0383(8) Uani 1 1 d . . . 
C8 C 0.4144(5) 0.0414(2) 0.6595(4) 0.0508(12) Uani 1 1 d . . . 
H8A H 0.5031 0.0629 0.6834 0.061 Uiso 1 1 calc R . . 
H8B H 0.3661 0.0606 0.5865 0.061 Uiso 1 1 calc R . . 
C9 C 0.4352(5) -0.0315(3) 0.6428(4) 0.0531(12) Uani 1 1 d . . . 
C10 C 0.3506(6) -0.0668(3) 0.5540(5) 0.0709(16) Uani 1 1 d . . . 
H10 H 0.2838 -0.0451 0.4982 0.085 Uiso 1 1 calc R . . 
C11 C 0.3674(8) -0.1363(4) 0.5493(7) 0.096(2) Uani 1 1 d . . . 
H11 H 0.3098 -0.1606 0.4908 0.116 Uiso 1 1 calc R . . 
C12 C 0.4658(9) -0.1681(4) 0.6285(8) 0.098(2) Uani 1 1 d . . . 
H12 H 0.4736 -0.2142 0.6259 0.117 Uiso 1 1 calc R . . 
C13 C 0.5538(7) -0.1326(3) 0.7123(6) 0.0837(19) Uani 1 1 d . . . 
H13 H 0.6249 -0.1542 0.7642 0.100 Uiso 1 1 calc R . . 
C14 C 0.5378(6) -0.0651(3) 0.7204(5) 0.0640(14) Uani 1 1 d . . . 
H14 H 0.5971 -0.0416 0.7790 0.077 Uiso 1 1 calc R . . 
C15 C 0.3537(4) 0.12901(19) 0.7795(4) 0.0434(11) Uani 1 1 d . . . 
H15A H 0.3144 0.1362 0.8435 0.052 Uiso 1 1 calc R . . 
H15B H 0.4505 0.1387 0.8058 0.052 Uiso 1 1 calc R . . 
C16 C 0.2899(4) 0.1773(2) 0.6862(4) 0.0437(11) Uani 1 1 d . . . 
C17 C 0.1583(5) 0.2006(2) 0.6742(4) 0.0511(12) Uani 1 1 d . . . 
H17 H 0.1092 0.1866 0.7249 0.061 Uiso 1 1 calc R . . 
C18 C 0.0996(5) 0.2446(2) 0.5868(5) 0.0580(14) Uani 1 1 d . . . 
H18 H 0.0103 0.2589 0.5782 0.070 Uiso 1 1 calc R . . 
C19 C 0.1712(6) 0.2671(2) 0.5136(4) 0.0588(14) Uani 1 1 d . . . 
H19 H 0.1316 0.2971 0.4559 0.071 Uiso 1 1 calc R . . 
C20 C 0.3018(6) 0.2453(2) 0.5256(5) 0.0654(15) Uani 1 1 d . . . 
H20 H 0.3506 0.2601 0.4751 0.078 Uiso 1 1 calc R . . 
C21 C 0.3619(5) 0.2013(2) 0.6121(5) 0.0558(13) Uani 1 1 d . . . 
H21 H 0.4516 0.1877 0.6206 0.067 Uiso 1 1 calc R . . 
N3 N 0.2201(4) 0.0519(2) 0.9695(4) 0.0599(11) Uani 1 1 d . . . 
C22 C 0.1587(5) 0.0594(2) 1.0321(5) 0.0540(13) Uani 1 1 d . . . 
C23 C 0.0792(7) 0.0684(3) 1.1156(6) 0.0842(19) Uani 1 1 d . . . 
H23A H 0.0011 0.0957 1.0830 0.126 Uiso 1 1 calc R . . 
H23B H 0.1348 0.0896 1.1829 0.126 Uiso 1 1 calc R . . 
H23C H 0.0495 0.0258 1.1359 0.126 Uiso 1 1 calc R . . 
ClA Cl 0.81252(13) 0.12494(7) 0.80005(13) 0.0693(5) Uani 0.60 1 d pd A 1 
O2A O 0.7094(8) 0.1640(4) 0.7324(9) 0.116(4) Uiso 0.60 1 d PD A 1 
O3A O 0.9310(7) 0.1617(5) 0.8419(11) 0.143(4) Uiso 0.60 1 d PD A 1 
O4A O 0.8574(11) 0.0838(5) 0.7248(8) 0.147(4) Uiso 0.60 1 d PD A 1 
O5A O 0.7786(10) 0.0821(5) 0.8762(9) 0.114(3) Uiso 0.60 1 d P A 1 
ClB Cl 0.81252(13) 0.12494(7) 0.80005(13) 0.0693(5) Uani 0.40 1 d PD B 2 
O2B O 0.6926(11) 0.1652(8) 0.7825(17) 0.141(7) Uiso 0.40 1 d PD B 2 
O3B O 0.8673(19) 0.1548(9) 0.9098(8) 0.168(7) Uiso 0.40 1 d PD B 2 
O4B O 0.910(2) 0.1394(15) 0.737(2) 0.237(11) Uiso 0.40 1 d PD B 2 
O5B O 0.7293(16) 0.0725(8) 0.7984(15) 0.131(5) Uiso 0.40 1 d P B 2 

loop_ 
 _atom_site_aniso_label 
 _atom_site_aniso_U_11 
 _atom_site_aniso_U_22 
 _atom_site_aniso_U_33 
 _atom_site_aniso_U_23 
 _atom_site_aniso_U_13 
 _atom_site_aniso_U_12 
Cu 0.0420(3) 0.0320(3) 0.0337(3) 0.0042(2) 0.0048(2) -0.0029(2) 
O1 0.0433(16) 0.0435(18) 0.0391(17) 0.0085(14) 0.0047(14) -0.0092(13) 
N1 0.052(2) 0.0341(19) 0.037(2) -0.0031(16) 0.0158(17) -0.0056(16) 
C1 0.097(4) 0.035(3) 0.074(4) -0.001(3) 0.020(3) 0.000(3) 
C2 0.068(3) 0.034(2) 0.050(3) -0.007(2) 0.025(2) -0.008(2) 
C3 0.091(4) 0.046(3) 0.067(4) -0.018(3) 0.035(3) -0.023(3) 
C4 0.083(4) 0.061(3) 0.062(4) -0.018(3) 0.007(3) -0.028(3) 
C5 0.060(3) 0.068(3) 0.046(3) -0.003(3) 0.004(2) -0.017(3) 
C6 0.050(3) 0.042(3) 0.035(2) -0.005(2) 0.008(2) -0.007(2) 
C7 0.047(2) 0.039(2) 0.039(2) 0.002(2) 0.001(2) -0.0062(19) 
N2 0.048(2) 0.0328(18) 0.0327(19) 0.0013(15) 0.0078(15) -0.0032(15) 
C8 0.063(3) 0.046(3) 0.046(3) 0.007(2) 0.019(2) -0.001(2) 
C9 0.066(3) 0.053(3) 0.047(3) -0.005(2) 0.028(2) -0.001(3) 
C10 0.092(4) 0.072(4) 0.052(3) -0.013(3) 0.023(3) -0.002(3) 
C11 0.129(6) 0.078(5) 0.087(5) -0.045(4) 0.038(5) -0.006(4) 
C12 0.127(6) 0.065(4) 0.116(6) -0.012(4) 0.059(5) 0.021(4) 
C13 0.084(4) 0.065(4) 0.103(5) -0.003(4) 0.027(4) 0.020(3) 
C14 0.066(3) 0.062(3) 0.066(4) -0.002(3) 0.020(3) 0.012(3) 
C15 0.052(3) 0.032(2) 0.042(3) 0.0004(19) 0.006(2) -0.0047(19) 
C16 0.055(3) 0.031(2) 0.043(3) 0.0006(19) 0.010(2) -0.0048(19) 
C17 0.058(3) 0.047(3) 0.053(3) 0.000(2) 0.024(2) 0.005(2) 
C18 0.056(3) 0.043(3) 0.071(4) -0.001(3) 0.008(3) 0.015(2) 
C19 0.084(4) 0.036(3) 0.051(3) 0.009(2) 0.008(3) 0.009(2) 
C20 0.084(4) 0.051(3) 0.068(4) 0.023(3) 0.032(3) 0.003(3) 
C21 0.054(3) 0.045(3) 0.073(3) 0.015(3) 0.024(3) 0.002(2) 
N3 0.066(3) 0.059(3) 0.060(3) 0.008(2) 0.027(2) 0.008(2) 
C22 0.064(3) 0.041(3) 0.060(3) 0.004(2) 0.022(3) 0.002(2) 
C23 0.099(5) 0.080(4) 0.092(5) -0.006(3) 0.060(4) 0.002(3) 
ClA 0.0505(7) 0.0669(9) 0.0814(10) 0.0250(7) 0.0011(6) -0.0146(6) 
ClB 0.0505(7) 0.0669(9) 0.0814(10) 0.0250(7) 0.0011(6) -0.0146(6)  
 

_geom_special_details 
;
All e.s.d.'s (except the e.s.d. in the dihedral angle between two l.s. planes)
are estimated using the full covariance matrix. The cell e.s.d.'s are taken
into account individually in the estimation of e.s.d.'s in distances, angles
and torsion angles; correlations between e.s.d.'s in cell parameters are only
used when they are defined by crystal symmetry. An approximate (isotropic)
treatment of cell e.s.d.'s is used for estimating e.s.d.'s involving l.s.
planes.
; 
 
loop_ 
 _geom_bond_atom_site_label_1 
 _geom_bond_atom_site_label_2 
 _geom_bond_distance 
 _geom_bond_site_symmetry_2 
 _geom_bond_publ_flag 
Cu O1 1.920(3) 3_657 y 
Cu O1 1.923(3) . 
y
Cu N1 2.044(3) . y 
Cu N2 2.070(3) . y 
Cu N3 2.476(5) . y 
Cu Cu 2.9522(9) 3_657 y 
O1 Cu 1.920(3) 3_657 ? 
O1 H1 0.952 . ? 
N1 C2 1.350(5) . ? 
N1 C6 1.352(5) . ? 
C1 C2 1.487(7) . ? 
C1 H1A 0.9600 . ? 
C1 H1B 0.9600 . ? 
C1 H1C 0.9600 . ? 
C2 C3 1.393(7) . ? 
C3 C4 1.356(8) . ? 
C3 H3 0.9300 . ? 
C4 C5 1.373(7) . ? 
C4 H4 0.9300 . ? 
C5 C6 1.366(6) . ? 
C5 H5 0.9300 . ? 
C6 C7 1.500(6) . ? 
C7 N2 1.485(5) . ? 
C7 H7A 0.9700 . ? 
C7 H7B 0.9700 . ? 
N2 C8 1.494(6) . ? 
N2 C15 1.513(5) . ? 
C8 C9 1.501(7) . ? 
C8 H8A 0.9700 . ? 
C8 H8B 0.9700 . ? 
C9 C14 1.381(7) . ? 
C9 C10 1.382(7) . ? 
C10 C11 1.408(8) . ? 
C10 H10 0.9300 . ? 
C11 C12 1.350(10) . ? 
C11 H11 0.9300 . ? 
C12 C13 1.362(9) . ? 
C12 H12 0.9300 . ? 
C13 C14 1.372(8) . ? 
C13 H13 0.9300 . ? 
C14 H14 0.9300 . ? 
C15 C16 1.500(6) . ? 
C15 H15A 0.9700 . ? 
C15 H15B 0.9700 . ? 
C16 C21 1.382(6) . ? 
C16 C17 1.386(6) . ? 
C17 C18 1.387(7) . ? 
C17 H17 0.9300 . ? 
C18 C19 1.361(7) . ? 
C18 H18 0.9300 . ? 
C19 C20 1.367(7) . ? 
C19 H19 0.9300 . ? 
C20 C21 1.384(6) . ? 
C20 H20 0.9300 . ? 
C21 H21 0.9300 . ? 
N3 C22 1.109(6) . ? 
C22 C23 1.459(8) . ? 
C23 H23A 0.9600 . ? 
C23 H23B 0.9600 . ? 
C23 H23C 0.9600 . ? 
ClA O5A 1.369(10) . ? 
ClA O3A 1.3890(10) . ? 
ClA O2A 1.3900(7) . ? 
ClA O4A 1.3911(10) . ? 
 
loop_
_geom_angle_atom_site_label_1
_geom_angle_atom_site_label_2
_geom_angle_atom_site_label_3
_geom_angle
_geom_angle_site_symmetry_1
_geom_angle_site_symmetry_3
_geom_angle_publ_flag

 O1 Cu O1 79.61(13) 3_657 . y
 O1 Cu N1 101.86(13) 3_657 . y
 O1 Cu N1 172.23(14) . . y
 O1 Cu N2 174.44(12) 3_657 . y
 O1 Cu N2 95.69(12) . . y
 N1 Cu N2 83.20(14) . . y
 O1 Cu N3 87.74(14) 3_657 . y
 O1 Cu N3 97.49(14) . . y
 N1 Cu N3 90.21(14) . . y
 N2 Cu N3 89.97(14) . . y
 Cu O1 Cu 100.39(13) 3_657 . y
 Cu O1 H1 115.0 3_657 . y
 Cu O1 H1 116.9 . . y
 C2 N1 C6 118.4(4) . . ?
 C2 C1 H1A 109.5 . . ?
 C2 C1 H1B 109.5 . . ?
 H1A C1 H1B 109.5 . . ?
 C2 C1 H1C 109.5 . . ?
 H1A C1 H1C 109.5 . . ?
 H1B C1 H1C 109.5 . . ?
 N1 C2 C3 120.1(5) . . ?
 N1 C2 C1 119.1(4) . . ?
 C3 C2 C1 120.8(4) . . ?
 C4 C3 C2 120.6(5) . . ?
 C4 C3 H3 119.7 . . ?
 C2 C3 H3 119.7 . . ?
 C3 C4 C5 119.2(5) . . ?
 C3 C4 H4 120.4 . . ?
 C5 C4 H4 120.4 . . ?
 C6 C5 C4 118.8(5) . . ?
 C6 C5 H5 120.6 . . ?
 C4 C5 H5 120.6 . . ?
 N1 C6 C5 122.8(4) . . ?
 N1 C6 C7 116.4(3) . . ?
 C5 C6 C7 120.8(4) . . ?
 N2 C7 C6 112.1(3) . . ?
 N2 C7 H7A 109.2 . . ?
 C6 C7 H7A 109.2 . . ?
 N2 C7 H7B 109.2 . . ?
 C6 C7 H7B 109.2 . . ?
 H7A C7 H7B 107.9 . . ?
 C7 N2 C8 112.9(3) . . ?
 C7 N2 C15 108.7(3) . . ?
 C8 N2 C15 109.7(3) . . ?
 C7 N2 Cu 102.1(2) . . ?
 C8 N2 Cu 113.1(3) . . ?
 C15 N2 Cu 110.0(2) . . ?
 N2 C8 C9 114.0(4) . . ?
 N2 C8 H8A 108.7 . . ?
 C9 C8 H8A 108.7 . . ?
 N2 C8 H8B 108.7 . . ?
 C9 C8 H8B 108.7 . . ?
 H8A C8 H8B 107.6 . . ?
 C14 C9 C10 118.7(5) . . ?
 C14 C9 C8 119.5(4) . . ?
 C10 C9 C8 121.7(5) . . ?
 C9 C10 C11 118.9(6) . . ?
 C9 C10 H10 120.6 . . ?
 C11 C10 H10 120.6 . . ?
 C12 C11 C10 121.0(6) . . ?
 C12 C11 H11 119.5 . . ?
 C10 C11 H11 119.5 . . ?
 C11 C12 C13 119.9(6) . . ?
 C11 C12 H12 120.1 . . ?
 C13 C12 H12 120.1 . . ?
 C12 C13 C14 120.2(6) . . ?
 C12 C13 H13 119.9 . . ?
 C14 C13 H13 119.9 . . ?
 C13 C14 C9 121.1(6) . . ?
 C13 C14 H14 119.4 . . ?
 C9 C14 H14 119.4 . . ?
 C16 C15 N2 115.1(3) . . ?
 C16 C15 H15A 108.5 . . ?
 N2 C15 H15A 108.5 . . ?
 C16 C15 H15B 108.5 . . ?
 N2 C15 H15B 108.5 . . ?
 H15A C15 H15B 107.5 . . ?
 C21 C16 C17 118.2(4) . . ?
 C21 C16 C15 121.0(4) . . ?
 C17 C16 C15 120.7(4) . . ?
 C16 C17 C18 120.3(5) . . ?
 C16 C17 H17 119.8 . . ?
 C18 C17 H17 119.8 . . ?
 C19 C18 C17 120.7(5) . . ?
 C19 C18 H18 119.6 . . ?
 C17 C18 H18 119.6 . . ?
 C18 C19 C20 119.5(5) . . ?
 C18 C19 H19 120.2 . . ?
 C20 C19 H19 120.2 . . ?
 C19 C20 C21 120.5(5) . . ?
 C19 C20 H20 119.7 . . ?
 C21 C20 H20 119.7 . . ?
 C20 C21 C16 120.6(5) . . ?
 C20 C21 H21 119.7 . . ?
 C16 C21 H21 119.7 . . ?
 C22 N3 Cu 155.2(4) . . y
 N3 C22 C23 179.2(6) . . ?
 C22 C23 H23A 109.5 . . ?
 C22 C23 H23B 109.5 . . ?
 H23A C23 H23B 109.5 . . ?
 C22 C23 H23C 109.5 . . ?
 H23A C23 H23C 109.5 . . ?
 H23B C23 H23C 109.5 . . ?
 O5A ClA O3A 115.8(7) . . ?
 O5A ClA O2A 117.9(6) . . ?
 O3A ClA O2A 111.1(6) . . ?
 O5A ClA O4A 104.5(7) . . ?
 O3A ClA O4A 98.9(7) . . ?
 O2A ClA O4A 106.0(7) . . ?

 

_diffrn_measured_fraction_theta_max    0.997 
_diffrn_reflns_theta_full              25.10 
_diffrn_measured_fraction_theta_full   0.997 
_refine_diff_density_max    0.760 
_refine_diff_density_min   -0.744 
_refine_diff_density_rms    0.093 
#############################################################
loop_
_publ_author_name
_publ_author_address
_publ_author_footnote
_publ_author_email
'Lee, J. van der'
;
Departamento de Qu\'imica B\'asica
Facultad\<T\/T de Ciencias F\'isicas y Matem\'aticas
Universidad\/H \/h de\.G\^G\^g\.g Chile\.C\.c\<C\<c
Avenida \^JTu\^jpper 2009\^S\^s
Santiago\^U\(U\^W\^w
Chile
;
;
hello
;
.
'\'Aarc\'ia, N. Ana Mar\'ia van t''
;
Departamento de Qu\'imica B\'asica
Facultad de Ciencias F\'isicas y Matem\'aticas
Universidad de Chile
Avenida Tupper 2009
Santiago
Chile
;
;
tis me
;
.
'Manzur, Jorge'
;
Departamento de Qu\'imica B\'asica
Facultad de Ciencias F\'isicas y Matem\'aticas
Universidad de Chile
Avenida Tupper 2009
Santiago
Chile
;
.
.
'Vega, Andr\'es'
;
Departamento de Qu\'imica
Facultad de Ciencias
Universidad de Tarapac\'a
Avenida General Velasquez 1775
Arica
Chile
;
.
.




# Formatted by publCIF


_no_item h

loop_
_iucr_publ_object.id
_iucr_publ_object.type
_iucr_publ_object.content
'13' 'tex'
;
\beta
;
