data_global

_audit_update_record
;
2007-08-05 # Formatted by publCIF

2007-08-07 # Formatted by IUCr publCIF

2008-05-21 # Formatted by IUCr publCIF system
;

_audit_creation_method               'form.cif (version 2.0)'

#==========================================================================
# PROCESSING SUMMARY  (IUCr Office Use Only)

_journal_date_recd_electronic     2007-07-21
_journal_date_to_coeditor         ?
_journal_date_from_coeditor       2007-08-06
_journal_date_accepted            2007-08-06
_journal_date_printers_first      2007-08-06
_journal_date_printers_final      ?
_journal_date_proofs_out          2007-08-08
_journal_date_proofs_in           ?
_journal_coeditor_name            ?
_journal_coeditor_code            BI2221
_journal_paper_category          QM
_journal_coeditor_notes           ?
_journal_techeditor_code          E073874
_iucr_compatibility_tag           ACTA95
_journal_techeditor_notes         ?
_journal_coden_ASTM               ACSEBH
_journal_name_full                'Acta Crystallographica, Section E'
_journal_year                     2007
_journal_volume                   63
_journal_issue                    09
_journal_page_first               m2315
_journal_page_last                m2315
_journal_suppl_publ_number        ?
_journal_suppl_publ_pages         ?

#==============================================================================
# SUBMISSION DETAILS

_publ_contact_author_name           'Professor Li, Zhong-Fang'
_publ_contact_author_address          
;
College of Chemical Engineering
Shandong University of Technology
Zibo 255049
People's Republic of China        
;

_publ_contact_author_email        zhfli_sdut@yahoo.com.cn
_publ_contact_author_fax          '0086-533-8230684'
_publ_contact_author_phone        '0086-533-8428220'

_publ_requested_journal           'Acta Crystallographica E'
_publ_requested_category          'EM'

#============================================================================
# TITLE AND AUTHOR LIST

_publ_section_title
;
Poly[diaqua-\m~3~-malonato-\m-pyrazine-diiron(II)]
;

loop_
 _publ_author_name
 _publ_author_address
'Li, Zhong-Fang'
;
College of Chemical Engineering
Shandong University of Technology
Zibo 255049
People's Republic of China        
;
'Liu, Ying'
;
College of Chemical Engineering
Shandong University of Technology
Zibo 255049
People's Republic of China        
;
'Zhang, Qian'
;
College of Chemical Engineering
Shandong University of Technology
Zibo 255049
People's Republic of China        
;
'Yu, Xian-Jin'
;
College of Chemical Engineering
Shandong University of Technology
Zibo 255049
People's Republic of China        
;

#============================================================================
# TEXT

_publ_section_abstract
;
The title compound, [Fe~2~(C~3~H~2~O~4~)~2~(C~4~H~4~N~2~)(H~2~O)~2~]<i>~n~</i>,
prepared by hydrothermal synthesis, is isostructural with its Co^II^, Ni^II^,
Zn^II^ and Cd^II^ analogues. The Fe^II^ atoms are linked <i>via</i>
coordinated malonates into two-dimensional sheets containing cavities. The
sheets are connected by bridging pyrazine ligands which lie on centres of
inversion. The coordination geometry around Fe^II^ is a tetragonally elongated
octahedron, in which pyrazine N and aqua O atoms occupy the apical positions.
The coordinated water molecules form O---H...O hydrogen bonds to the malonate
ligands.
;

_publ_section_related_literature
;
For the isostructural analogues, see: Co^II^ (Delgado <i>et al.</i>, 2003);
Ni^II^ (Liu <i>et al.</i>, 2005); Zn^II^ (Zhang <i>et al.</i>, 2003; Delgado
<i>et al.</i>, 2003); Cd^II^ (Mao <i>et al.</i>, 2004).
;

_publ_section_comment
;
The title compound is isostructural with its Co^II^ (Delgado <i>et al.</i>,
2003), Ni^II^ (Liu <i>et al.</i>, 2005), Zn^II^ (Zhang <i>et al.</i>, 2003;
Delgado <i>et al.</i>, 2003) and Cd^II^ (Mao <i>et al.</i>, 2004) analogues.
The Fe^II^ atom exhibits sixfold coordination, chelated by two O atoms from
one malonate ligand to form a six-membered boat-type ring, and by two O atoms
from two neighbouring malonates, one water molecule and one N atom from the
bridging pyrazine ligand (Fig. 1). The Fe---<i>O</i>(carboxylate) and Fe---N
bond lengths are in the range 2.064(4)--2.202(4) and 2.272(4) \%A,
respectively.

The [Fe(malonate)(H~2~O)] units form two-dimensional networks parallel to the
(010) planes. These are linked by the bridging pyrazine ligands into a
three-dimensional structure. O---H...O hydrogen bonds (Table 1) are formed
between the coordinated water molecules and the malonate ligands.
;


_publ_section_acknowledgements
;
The authors thank Shandong University of Technology for financial support.
;

_publ_section_references
;
Bruker (2001). <i>SAINT-Plus</i> and <i>SHELXTL</i>. Bruker AXS Inc., Madison,
Wisconsin, USA.

Bruker (2004). <i>APEX2</i>. Bruker AXS Inc., Madison, Wisconsin, USA.

Delgado, F. S., Sanchiz, J., Ruiz-Perez, C., Lloret, F. & Julve, M. (2003).
<i>CrystEngComm</i>, <b>5</b>, 280--286.

Liu, Y., Dou, J., Wang, D., Ma, G. & Li, D. (2005). <i>Acta Cryst.</i>
E<b>61</b>, m1834--m1836.

Mao, H. Y., Zhang, C. Z., Li, G., Zhang, H. Y., Hou, H. W., Li, L. J., Wu, Q.
G., Zhu, Y. & Wang, E. B. (2004). <i>Discuss. Faraday Soc.</i> pp. 3918--3919.

Sheldrick, G. M. (1997). <i>SHELXS97</i> and <i>SHELXL97</i>. University of
G\"ottingen, Germany.

Zhang, X. T., Lu, C. Z., Zhang, Q. Z., Lu, S. F., Yang, W. B., Liu, J. C. &
Zhuang, H. H. (2003). <i>Eur. J. Inorg. Chem.</i> pp. 1181--11816.
;

_publ_section_figure_captions
;
Fig. 1. Part of the polymeric structure of the title complex showing
displacement ellipsoids at 30% probability for non-H atoms. Atoms labeled with
the suffix I are generated by the symmetry operator (-<i>x</i> + 1, <i>y</i> +
1/2,-<i>z</i> + 3/2).

Fig. 2. Packing diagram for the title complex viewed along the <i>c</i>-axis.
;

_publ_section_exptl_prep
;
A mixture of FeSO~4~ (0.5 mmol), malonic acid (0.5 mmol), NaOH (1 mmol),
pyrazine (1 mmol) and H~2~O (8 ml) in a 25 ml Teflon-lined stainless steel
autoclave was heated at 443 K for two days, and then cooled to room
temperature. Light green block crystals of the title compound were obtained
with a yield of 22%. Elemental analysis: calculated C 27.91, H 2.79, N 6.51%;
found: C 27.88, H 2.75, N 6.47%.
;

_publ_section_exptl_refinement
;
All H atoms on C atoms were generated geometrically and refined as riding atoms
with C---H = 0.93 or 0.97 \%A and with <i>U</i>~iso~(H) = 1.2<i>U</i>~eq~(C).
The H atoms of the water molecule were located from difference Fourier maps
and were refined with distance restraints of d(H---H) = 1.38(2) \%A, d(O---H)
= 0.82(1) \%A.
;

#============================================================================
 
data_I 

_chemical_name_systematic 
;
Poly[diaqua-\m~3~-malonato-\m-pyrazine-diiron(II)]
; 

_chemical_name_common             ? 
_chemical_melting_point           ?
_chemical_formula_iupac           '[Fe2 (C3 H2 O4)2 (C4 H4 N2) (H2 O)2]'  
_chemical_formula_moiety          'C10 H12 Fe2 N2 O10'
_chemical_formula_sum             'C10 H12 Fe2 N2 O10' 
_chemical_formula_weight          431.92 
  
loop_ 
 _atom_type_symbol 
 _atom_type_description 
 _atom_type_scat_dispersion_real 
 _atom_type_scat_dispersion_imag 
 _atom_type_scat_source 
 'C'  'C'   0.0033   0.0016 
 'International Tables Vol C Tables 4.2.6.8 and 6.1.1.4' 
 'H'  'H'   0.0000   0.0000 
 'International Tables Vol C Tables 4.2.6.8 and 6.1.1.4' 
 'N'  'N'   0.0061   0.0033 
 'International Tables Vol C Tables 4.2.6.8 and 6.1.1.4' 
 'O'  'O'   0.0106   0.0060 
 'International Tables Vol C Tables 4.2.6.8 and 6.1.1.4' 
 'Fe'  'Fe'   0.3463   0.8444 
 'International Tables Vol C Tables 4.2.6.8 and 6.1.1.4' 
  
_symmetry_cell_setting            monoclinic 
_symmetry_space_group_name_H-M    'P 21/n' 
_symmetry_space_group_name_Hall   '-P 2yn'
  
loop_ 
 _symmetry_equiv_pos_as_xyz 
 'x, y, z' 
 '-x+1/2, y+1/2, -z+1/2' 
 '-x, -y, -z' 
 'x-1/2, -y-1/2, z-1/2' 
  
_cell_length_a                    6.9652(10) 
_cell_length_b                    14.589(2) 
_cell_length_c                    7.3212(10) 
_cell_angle_alpha                 90.00 
_cell_angle_beta                  92.179(1) 
_cell_angle_gamma                 90.00 
_cell_volume                      743.39(18) 
_cell_formula_units_Z             2 
_cell_measurement_temperature     293(2) 
_cell_measurement_reflns_used     1293 
_cell_measurement_theta_min       2.79 
_cell_measurement_theta_max       25.00
  
_exptl_crystal_description        block 
_exptl_crystal_colour             green 
_exptl_crystal_size_max           0.36 
_exptl_crystal_size_mid           0.28 
_exptl_crystal_size_min           0.24 
_exptl_crystal_density_meas       ? 
_exptl_crystal_density_diffrn     1.930 
_exptl_crystal_density_method     'not measured' 
_exptl_crystal_F_000              436 
_exptl_absorpt_coefficient_mu     2.009 
_exptl_absorpt_correction_type    multi-scan
_exptl_absorpt_correction_T_min   0.5316 
_exptl_absorpt_correction_T_max   0.6442 
_exptl_absorpt_process_details    '(SADABS; Bruker, 2001)' 
  
_exptl_special_details            
;

;
 
  
_diffrn_ambient_temperature       293(2) 
_diffrn_radiation_wavelength      0.71073 
_diffrn_radiation_type            MoK\a 
_diffrn_radiation_source          'fine-focus sealed tube' 
_diffrn_radiation_monochromator   graphite 
_diffrn_measurement_device_type   'Bruker APEXII CCD' 
_diffrn_measurement_method        '\f and \w'
_diffrn_standards_number          0
_diffrn_standards_interval_count  . 
_diffrn_standards_interval_time   . 
_diffrn_standards_decay_%         ? 
_diffrn_reflns_number             2391 
_diffrn_reflns_av_R_equivalents   0.0225 
_diffrn_reflns_av_sigmaI/netI     0.0374 
_diffrn_reflns_limit_h_min       -8 
_diffrn_reflns_limit_h_max        3 
_diffrn_reflns_limit_k_min       -13 
_diffrn_reflns_limit_k_max        16 
_diffrn_reflns_limit_l_min       -8 
_diffrn_reflns_limit_l_max        8 
_diffrn_reflns_theta_min          2.79 
_diffrn_reflns_theta_max          25.00
_diffrn_measured_fraction_theta_max    0.987 
_diffrn_reflns_theta_full              25.00 
_diffrn_measured_fraction_theta_full   0.987 
_reflns_number_total              1293 
_reflns_number_gt                 1100 
_reflns_threshold_expression      I>2\s(I) 
 
_computing_data_collection        'APEX2 (Bruker, 2004)' 
_computing_cell_refinement        'SAINT-Plus (Bruker, 2001)' 
_computing_data_reduction         'SAINT-Plus' 
_computing_structure_solution     'SHELXS97 (Sheldrick, 1997)' 
_computing_structure_refinement   'SHELXL97 (Sheldrick, 1997)' 
_computing_molecular_graphics     'SHELXTL (Bruker, 2001)' 
_computing_publication_material   'SHELXTL'
  
_refine_special_details 
;
Refinement of <i>F</i>^2^ against ALL reflections. The weighted <i>R</i>-factor
<i>wR</i> and goodness of fit <i>S</i> are based on <i>F</i>^2^, conventional
<i>R</i>-factors <i>R</i> are based on <i>F</i>, with <i>F</i> set to zero for
negative <i>F</i>^2^. The threshold expression of <i>F</i>^2^ >
\s(<i>F</i>^2^) is used only for calculating <i>R</i>-factors(gt) <i>etc</i>.
and is not relevant to the choice of reflections for refinement.
<i>R</i>-factors based on <i>F</i>^2^ are statistically about twice as large
as those based on <i>F</i>, and <i>R</i>- factors based on ALL data will be
even larger.
; 
  
_refine_ls_structure_factor_coef  Fsqd 
_refine_ls_matrix_type            full 
_refine_ls_weighting_scheme       calc 
_refine_ls_weighting_details 
 'calc w = 1/[\s^2^(Fo^2^)+(0.0653P)^2^+1.1979P] where P=(Fo^2^+2Fc^2^)/3' 
_atom_sites_solution_primary      direct 
_atom_sites_solution_secondary    difmap 
_atom_sites_solution_hydrogens    geom 
_refine_ls_hydrogen_treatment     mixed 
_refine_ls_extinction_method      'SHELXL97 (Sheldrick, 1997)' 
_refine_ls_extinction_coef        0.039(4) 
_refine_ls_extinction_expression 
 'Fc^*^=kFc[1+0.001xFc^2^\l^3^/sin(2\q)]^-1/4^' 
_refine_ls_number_reflns          1293 
_refine_ls_number_parameters      116 
_refine_ls_number_restraints      3 
_refine_ls_R_factor_all           0.0462 
_refine_ls_R_factor_gt            0.0398 
_refine_ls_wR_factor_ref          0.1062 
_refine_ls_wR_factor_gt           0.1020 
_refine_ls_goodness_of_fit_ref    1.001 
_refine_ls_restrained_S_all       1.000 
_refine_ls_shift/su_max           0.010 
_refine_ls_shift/su_mean          0.001 
_refine_diff_density_max          0.647 
_refine_diff_density_min         -0.396 
_refine_diff_density_rms          0.107 
  
loop_ 
 _atom_site_label 
 _atom_site_type_symbol 
 _atom_site_fract_x 
 _atom_site_fract_y 
 _atom_site_fract_z 
 _atom_site_U_iso_or_equiv 
 _atom_site_adp_type 
 _atom_site_occupancy 
 _atom_site_symmetry_multiplicity 
 _atom_site_calc_flag 
 _atom_site_refinement_flags 
 _atom_site_disorder_assembly 
 _atom_site_disorder_group 
C1 C 0.5845(6) 0.3316(3) 0.7563(6) 0.0316(9) Uani 1 1 d . . . 
C2 C 0.6129(7) 0.3912(3) 0.5893(6) 0.0397(10) Uani 1 1 d . . . 
H2A H 0.5238 0.4423 0.5912 0.048 Uiso 1 1 calc R . . 
H2B H 0.7422 0.4160 0.5955 0.048 Uiso 1 1 calc R . . 
C3 C 0.5827(6) 0.3401(3) 0.4125(6) 0.0317(9) Uani 1 1 d . . . 
C4 C 0.4533(7) 0.0742(3) 0.5913(7) 0.0473(12) Uani 1 1 d . . . 
H4 H 0.4138 0.1251 0.6565 0.057 Uiso 1 1 calc R . . 
C5 C 0.6788(6) -0.0045(3) 0.4450(7) 0.0437(11) Uani 1 1 d . . . 
H5 H 0.8030 -0.0107 0.4042 0.052 Uiso 1 1 calc R . . 
Fe1 Fe 0.83758(7) 0.19136(3) 0.58103(6) 0.0177(3) Uani 1 1 d . . . 
N1 N 0.6323(5) 0.0716(2) 0.5376(5) 0.0357(8) Uani 1 1 d . . . 
O1 O 0.6634(4) 0.2528(2) 0.7697(4) 0.0397(8) Uani 1 1 d . . . 
O2 O 0.4864(4) 0.3672(2) 0.8748(4) 0.0403(8) Uani 1 1 d . . . 
O3 O 0.6700(5) 0.2644(2) 0.3900(4) 0.0429(8) Uani 1 1 d . . . 
O4 O 0.4752(4) 0.3774(2) 0.2946(4) 0.0393(7) Uani 1 1 d . . . 
O5 O 1.0315(5) 0.3106(2) 0.5861(4) 0.0439(8) Uani 1 1 d D . . 
H2W H 1.090(8) 0.308(4) 0.490(4) 0.080 Uiso 1 1 d D . . 
H1W H 1.101(7) 0.298(4) 0.677(5) 0.080 Uiso 1 1 d D . . 
  
loop_ 
 _atom_site_aniso_label 
 _atom_site_aniso_U_11 
 _atom_site_aniso_U_22 
 _atom_site_aniso_U_33 
 _atom_site_aniso_U_23 
 _atom_site_aniso_U_13 
 _atom_site_aniso_U_12 
C1 0.034(2) 0.029(2) 0.032(2) -0.0053(18) 0.0005(16) 0.0001(18) 
C2 0.056(3) 0.034(2) 0.029(2) 0.0010(19) 0.0022(19) 0.005(2) 
C3 0.036(2) 0.028(2) 0.032(2) 0.0045(18) 0.0042(17) 0.0035(18) 
C4 0.044(3) 0.039(3) 0.060(3) -0.014(2) 0.018(2) -0.005(2) 
C5 0.038(2) 0.034(3) 0.060(3) -0.009(2) 0.012(2) -0.002(2) 
Fe1 0.0219(3) 0.0169(4) 0.0145(3) -0.00062(19) 0.0018(2) 0.00068(19) 
N1 0.0357(18) 0.033(2) 0.038(2) -0.0011(16) 0.0017(15) -0.0020(16) 
O1 0.0516(18) 0.0358(18) 0.0325(16) 0.0027(13) 0.0116(13) 0.0069(14) 
O2 0.0454(17) 0.0379(18) 0.0387(17) 0.0000(14) 0.0168(13) 0.0043(14) 
O3 0.054(2) 0.042(2) 0.0325(16) -0.0031(14) -0.0052(14) 0.0114(15) 
O4 0.0476(17) 0.0335(17) 0.0363(16) 0.0027(14) -0.0060(13) 0.0027(14) 
O5 0.0467(19) 0.053(2) 0.0325(17) 0.0000(15) 0.0019(14) -0.0013(15) 
  
_geom_special_details 
;
All e.s.d.'s (except the e.s.d. in the dihedral angle between two l.s. planes)
are estimated using the full covariance matrix. The cell e.s.d.'s are taken
into account individually in the estimation of e.s.d.'s in distances, angles
and torsion angles; correlations between e.s.d.'s in cell parameters are only
used when they are defined by crystal symmetry. An approximate (isotropic)
treatment of cell e.s.d.'s is used for estimating e.s.d.'s involving l.s.
planes.
; 
  
loop_ 
 _geom_bond_atom_site_label_1 
 _geom_bond_atom_site_label_2 
 _geom_bond_distance 
 _geom_bond_site_symmetry_2 
 _geom_bond_publ_flag 
C1 O2 1.239(5) . ? 
C1 O1 1.276(5) . ? 
C1 C2 1.519(6) . ? 
C2 C3 1.501(6) . ? 
C2 H2A 0.970 . ? 
C2 H2B 0.970 . ? 
C3 O4 1.246(5) . ? 
C3 O3 1.275(6) . ? 
C4 N1 1.322(6) . ? 
C4 C5 1.390(7) 3_656 ? 
C4 H4 0.930 . ? 
C5 N1 1.347(6) . ? 
C5 C4 1.390(7) 3_656 ? 
C5 H5 0.930 . ? 
Fe1 O2 2.050(3) 4_665 ? 
Fe1 O4 2.064(3) 4_666 ? 
Fe1 O1 2.076(3) . ? 
Fe1 O3 2.081(3) . ? 
Fe1 O5 2.202(4) . ? 
Fe1 N1 2.272(4) . ? 
O2 Fe1 2.050(3) 4_566 ? 
O4 Fe1 2.064(3) 4_565 ? 
O5 H2W 0.83(4) . ? 
O5 H1W 0.83(4) . ? 
  
loop_ 
 _geom_angle_atom_site_label_1 
 _geom_angle_atom_site_label_2 
 _geom_angle_atom_site_label_3 
 _geom_angle 
 _geom_angle_site_symmetry_1 
 _geom_angle_site_symmetry_3 
 _geom_angle_publ_flag 
O2 C1 O1 124.8(4) . . ? 
O2 C1 C2 114.6(4) . . ? 
O1 C1 C2 120.6(4) . . ? 
C3 C2 C1 113.1(4) . . ? 
C3 C2 H2A 109.0 . . ? 
C1 C2 H2A 109.0 . . ? 
C3 C2 H2B 109.0 . . ? 
C1 C2 H2B 109.0 . . ? 
H2A C2 H2B 107.8 . . ? 
O4 C3 O3 124.5(4) . . ? 
O4 C3 C2 116.2(4) . . ? 
O3 C3 C2 119.3(4) . . ? 
N1 C4 C5 123.2(4) . 3_656 ? 
N1 C4 H4 118.4 . . ? 
C5 C4 H4 118.4 3_656 . ? 
N1 C5 C4 122.0(4) . 3_656 ? 
N1 C5 H5 119.0 . . ? 
C4 C5 H5 119.0 3_656 . ? 
O2 Fe1 O4 97.03(13) 4_665 4_666 ? 
O2 Fe1 O1 173.95(12) 4_665 . ? 
O4 Fe1 O1 88.42(13) 4_666 . ? 
O2 Fe1 O3 90.26(13) 4_665 . ? 
O4 Fe1 O3 172.32(12) 4_666 . ? 
O1 Fe1 O3 84.20(12) . . ? 
O2 Fe1 O5 90.84(12) 4_665 . ? 
O4 Fe1 O5 95.99(12) 4_666 . ? 
O1 Fe1 O5 91.21(12) . . ? 
O3 Fe1 O5 86.27(14) . . ? 
O2 Fe1 N1 84.81(12) 4_665 . ? 
O4 Fe1 N1 90.23(13) 4_666 . ? 
O1 Fe1 N1 92.56(13) . . ? 
O3 Fe1 N1 88.03(13) . . ? 
O5 Fe1 N1 172.81(13) . . ? 
C4 N1 C5 114.9(4) . . ? 
C4 N1 Fe1 122.1(3) . . ? 
C5 N1 Fe1 122.9(3) . . ? 
C1 O1 Fe1 126.8(3) . . ? 
C1 O2 Fe1 130.5(3) . 4_566 ? 
C3 O3 Fe1 128.0(3) . . ? 
C3 O4 Fe1 124.2(3) . 4_565 ? 
Fe1 O5 H2W 106(4) . . ? 
Fe1 O5 H1W 100(5) . . ? 
H2W O5 H1W 113(3) . . ? 
  
loop_ 
 _geom_hbond_atom_site_label_D 
 _geom_hbond_atom_site_label_H 
 _geom_hbond_atom_site_label_A 
 _geom_hbond_distance_DH 
 _geom_hbond_distance_HA 
 _geom_hbond_distance_DA 
 _geom_hbond_angle_DHA 
 _geom_hbond_site_symmetry_A 
O5 H2W O1  0.83(4) 1.93(3) 2.689(4) 152(6) 4_665
O5 H2W O2  0.83(4) 2.78(6) 3.031(5) 99(5) 4_665 



