data_global

_audit_update_record
;
2008-02-06 # Formatted by IUCr publCIF
;
#==============================================================================

# PROCESSING SUMMARY (IUCr Office Use Only)

_journal_date_recd_electronic     98-02-11
_journal_date_to_coeditor         ?
_journal_date_from_coeditor       ?
_journal_date_accepted            98-03-24
_journal_date_printers_first      ?
_journal_date_printers_final      ?
_journal_date_proofs_out          ?
_journal_date_proofs_in           ?
_journal_coeditor_name            ?
_journal_coeditor_code            QA0033
_journal_data_validation_number   IUC9800015
_journal_coeditor_notes
; ?
;
_journal_paper_category          CM
_journal_techeditor_code          ?
_iucr_compatibility_tag       ACTA95
_journal_techeditor_notes  
;
;
_journal_coden_ASTM               ?
_journal_name_full                ?
_journal_year                     1998 
_journal_volume                   C54
_journal_issue                    MAY98
_journal_page_first               0 
_journal_page_last                0
_journal_suppl_publ_number        ?
_journal_suppl_publ_pages         ?

loop_
_journal_index_type
_journal_index_term
_journal_index_subterm
I  '[HgRe$_{2}$(CF$_{3}$)(C$_{12}$H$_{22}$P)(CO)$_{8}$]' .
O  'C$_{21}$H$_{22}$F$_{3}$HgO$_{8}$PRe$_{2}$' .
S
; 
Octacarbonyl(${\mu}$-dicyclohexylphosphanido)(${\mu}$-trifluoro\-methyl%
\-mercury)dirhenium 
;   .
S    'Cluster compounds'            HgRe2


#==============================================================================


_publ_contact_author_name
;
Dr Ulrich Fl\"orke
;
_publ_contact_author_address
;
Anorganische und Analytische Chemie
Universit\"at-GH Paderborn
Warburgerstr. 100
D-33098 Paderborn, Germany
;

_publ_contact_author_email        uf@chemie.uni-paderborn.de 
_publ_contact_author_fax          '+49 5251 60 3423'
_publ_contact_author_phone        '+49 5251 60 2496'

_publ_contact_letter
;
 Please consider this CIF submission for publication in
 Acta Cryst C. 
 FoFc file and diagrams will be sent as separate e-mail after receiving
 the reference number.
;

_publ_requested_journal           'Acta Cryst. C'
_publ_requested_category          CM
_publ_section_title
;
Octacarbonyl(\m-dicyclohexylphosphanido)(\m-trifluoromethylmercury)dirhenium
;

loop_
_publ_author_name
_publ_author_address

 'Fl\"orke, Ulrich'
;Fachbereich Chemie und Chemietechnik
 Universit\"at-GH Paderborn
 Warburgerstr. 100
 D-33098 Paderborn, Germany
;
 'Haupt, Hans-J\"urgen'
;Fachbereich Chemie und Chemietechnik
 Universit\"at-GH Paderborn
 Warburgerstr. 100
 D-33098 Paderborn, Germany
;

_publ_section_synopsis
;
The title compound belongs to the rare examples of trinuclear rhenium- mercury
carbonyl cluster complexes with a bridging phosphido ligand.
;
_publ_section_abstract
;
The title compound belongs to the rare examples of trinuclear rhenium- mercury
carbonyl cluster complexes with a bridging phosphido ligand.
;


_publ_section_comment 
;
The molecule lies on a crystallographic mirror plane which runs through the P,
Hg and the CF~3~-carbon atom and is perpendicular to the HgRe~2~P plane. The
latter is almost planar with a dihedral angle HgRe~2~/Re~2~P of 1.0(1)\%. The
rhenium atoms show slightly distorted octahedral coordination with the \m-Hg,
\m-P and four carbonyl ligands attached. The mercury atom is trigonal planar
coordinated by the two Re and the terminal CF~3~ ligand. Important geometrical
data are Re---Re 3.2335(9), Re---Hg 2.7993(6), Re---P 2.451(2) \%A,
Re---Hg---Re 70.55(2) and Re---P---Re 82.56(9)\%. The molecular structure is
closely related to those of the isolobal substituted ones of
Mn~2~(\m-H)(\m-PPh~2~)- (CO)~8~ (Ph = phenyl) and
Mn~2~(AuP<i>R</i>~3~)(\m-PPh~2~)(CO)~8~ (Iggo, Mays, Raithby & Henrick, 1984;
Haupt, Heinekamp, Fl\"orke & J\"uptner, 1992) and, especially, to that of
Re~2~(\m-HgPPh~3~)(\m-PCy~2~)(CO)~7~Cl (Cy = cyclohexyl) (Fl\"orke, Haupt &
Siefert, 1996).
;        

_publ_section_references 
;
Fl\"orke, U., Haupt, H.-J. & Siefert, R. (1996). <i>Z. Kristallogr.</i>
<b>211</b>, 695--699.

Haupt, H.-J., Heinekamp, C., Fl\"orke, U. & J\"uptner, U. (1992). <i>Z. Anorg.
Allg. Chem.</i> <b>608</b>, 100--114.

Iggo, J. A., Mays, M. J., Raithby, P. R. & Henrick, K. (1984). <i>J. Chem. Soc.
Dalton Trans.</i> 633--641.

Schwefer, M. (1994). Dissertation, University of Paderborn, Germany

Siemens (1995). <i>SHELXTL</i> V5. Siemens Industrial Automation, Inc.
Analytical Instrumentation, Madison, Wisconsin, USA.
;

_publ_section_exptl_prep 
;
The title compound was prepared by reaction of NEt~4~[Re~2~(\mPCy~2~)(CO)~8~]
and CF~3~COOHgCF~3~, molar ratio 1:1, in thf solution at 293 K. Then the
solvent was removed <i>in vacuo</i> and the solid residue recrystallized from
dichloromethane (Schwefer, 1994).
;
 
_publ_section_exptl_refinement
;
The largest final difference map features are 0.8--1.1\%A from Re1.
;
data_s425 
 
_audit_creation_method            SHELXL 
_chemical_name_systematic 
; 
 (\m-dicyclohexylphosphido)(\m-trifluormethyl-mercury)-octacarbonyl-dirhenium
; 
_chemical_formula_moiety   '[Hg Re2 (C F3 )(C12 H22 P )(C O )8 ]'
_chemical_formula_sum             'C21 H22 F3 Hg O8 P Re2' 
_chemical_formula_weight          1063.35 
                                    
 
loop_ 
 _atom_type_symbol 
 _atom_type_description 
 _atom_type_scat_dispersion_real 
 _atom_type_scat_dispersion_imag 
 _atom_type_scat_source 
 'C'  'C'   0.0033   0.0016 
 'International Tables Vol C Tables 4.2.6.8 and 6.1.1.4' 
 'H'  'H'   0.0000   0.0000 
 'International Tables Vol C Tables 4.2.6.8 and 6.1.1.4' 
 'O'  'O'   0.0106   0.0060 
 'International Tables Vol C Tables 4.2.6.8 and 6.1.1.4' 
 'F'  'F'   0.0171   0.0103 
 'International Tables Vol C Tables 4.2.6.8 and 6.1.1.4' 
 'P'  'P'   0.1023   0.0942 
 'International Tables Vol C Tables 4.2.6.8 and 6.1.1.4' 
 'Re'  'Re'  -1.0185   7.2310 
 'International Tables Vol C Tables 4.2.6.8 and 6.1.1.4' 
 'Hg'  'Hg'  -2.3894   9.2266 
 'International Tables Vol C Tables 4.2.6.8 and 6.1.1.4' 
 
_symmetry_cell_setting            monoclinic
_symmetry_space_group_name_H-M    'C 2/m'
_symmetry_space_group_name_Hall   '-C 2y' 
loop_ 
 _symmetry_equiv_pos_as_xyz 
 'x, y, z' 
 '-x, y, -z' 
 'x+1/2, y+1/2, z' 
 '-x+1/2, y+1/2, -z' 
 '-x, -y, -z' 
 'x, -y, z' 
 '-x+1/2, -y+1/2, -z' 
 'x+1/2, -y+1/2, z' 
 
_cell_length_a                    14.247(2) 
_cell_length_b                    11.371(2) 
_cell_length_c                    16.727(3) 
_cell_angle_alpha                 90.00 
_cell_angle_beta                  90.33(1) 
_cell_angle_gamma                 90.00 
_cell_volume                      2709.8(8) 
_cell_formula_units_Z             4 
_cell_measurement_temperature     293(2) 
_cell_measurement_reflns_used     35
_cell_measurement_theta_min       9 
_cell_measurement_theta_max       18
 
_exptl_crystal_description        prism 
_exptl_crystal_colour             colorless
_exptl_crystal_size_max           0.23
_exptl_crystal_size_mid           0.19
_exptl_crystal_size_min           0.10
_exptl_crystal_density_meas       ?
_exptl_crystal_density_diffrn     2.606 
_exptl_crystal_F_000              1936 
_exptl_absorpt_coefficient_mu     14.685 
_exptl_absorpt_correction_type    psi-scan
_exptl_absorpt_process_details  'SHELXTL (Siemens, 1995)'
_exptl_absorpt_correction_T_min   0.076
_exptl_absorpt_correction_T_max   0.230
 
_diffrn_ambient_temperature       293(2) 
_diffrn_radiation_wavelength      0.71073 
_diffrn_radiation_type            MoK\a 
_diffrn_radiation_source          'fine-focus sealed tube' 
_diffrn_radiation_monochromator   graphite 
_diffrn_measurement_device        'Siemens R3'
_diffrn_measurement_method        omega-2theta
_diffrn_standards_number          3 
_diffrn_standards_interval_count  400
_diffrn_standards_decay_%         3 
_diffrn_reflns_number             6455 
_diffrn_reflns_av_R_equivalents   0.0644 
_diffrn_reflns_av_sigmaI/netI     0.0684 
_diffrn_reflns_limit_h_min        -18 
_diffrn_reflns_limit_h_max        18 
_diffrn_reflns_limit_k_min        -14 
_diffrn_reflns_limit_k_max        14 
_diffrn_reflns_limit_l_min        0 
_diffrn_reflns_limit_l_max        21 
_diffrn_reflns_theta_min          2.29 
_diffrn_reflns_theta_max          50 
_reflns_number_total              3289 
_reflns_number_observed           2259 
_reflns_observed_criterion        >2sigma(I) 
 
_computing_structure_solution     'SHELXTL V5 (Siemens, 1995)' 
_computing_structure_refinement   'SHELXTL V5 (Siemens, 1995)' 
 
_refine_special_details 
; 
 Refinement on F^2^ for ALL reflections except for 1 with very negative F^2^ 
 or flagged by the user for potential systematic errors.  Weighted R-factors 
 wR and all goodnesses of fit S are based on F^2^, conventional R-factors R 
 are based on F, with F set to zero for negative F^2^. The observed criterion 
 of F^2^ > 2sigma(F^2^) is used only for calculating _R_factor_obs etc. and is 
 not relevant to the choice of reflections for refinement.  R-factors based 
 on F^2^ are statistically about twice as large as those based on F, and R- 
 factors based on ALL data will be even larger. 
; 
 
_refine_ls_structure_factor_coef  Fsqd  
_refine_ls_matrix_type            full 
_refine_ls_weighting_scheme 
 'calc w=1/[\s^2^(Fo^2^)+(0.0300P)^2^+0.0000P] where P=(Fo^2^+2Fc^2^)/3' 
_atom_sites_solution_primary      direct 
_atom_sites_solution_secondary    difmap 
_atom_sites_solution_hydrogens    geom 
_refine_ls_hydrogen_treatment     constr 
_refine_ls_extinction_method      SHELXL 
_refine_ls_extinction_coef        0.00019(2) 
_refine_ls_extinction_expression 
 'Fc^*^=kFc[1+0.001xFc^2^\l^3^/sin(2\q)]^-1/4^' 
_refine_ls_number_reflns          3288 
_refine_ls_number_parameters      178 
_refine_ls_number_restraints      0 
_refine_ls_R_factor_all           0.0626 
_refine_ls_R_factor_obs           0.0364 
_refine_ls_wR_factor_all          0.0861 
_refine_ls_wR_factor_obs          0.0740 
_refine_ls_goodness_of_fit_all    0.990 
_refine_ls_goodness_of_fit_obs    1.041 
_refine_ls_restrained_S_all       0.991 
_refine_ls_restrained_S_obs       1.041 
_refine_ls_shift/su_max  <0.002
 
_refine_ls_shift/esd_mean         0.000 
 
loop_ 
 _atom_site_label 
 _atom_site_type_symbol 
 _atom_site_fract_x 
 _atom_site_fract_y 
 _atom_site_fract_z 
 _atom_site_U_iso_or_equiv 
 _atom_site_thermal_displace_type 
 _atom_site_occupancy 
 _atom_site_calc_flag 
 _atom_site_refinement_flags 
 _atom_site_disorder_group 
Re1 Re 0.77290(2) 0.14218(3) 0.31747(2) 0.03283(13) Uani 1 d . . 
Hg1 Hg 0.83000(4) 0.0000 0.44542(3) 0.0467(2) Uani 1 d S . 
P1 P 0.7247(2) 0.0000 0.2151(2) 0.0271(6) Uani 1 d S . 
C1 C 0.8140(7) 0.2496(9) 0.4025(6) 0.051(3) Uani 1 d . . 
O1 O 0.8351(6) 0.3176(7) 0.4486(4) 0.074(2) Uani 1 d . . 
C2 C 0.7409(6) 0.2783(9) 0.2529(6) 0.042(2) Uani 1 d . . 
O2 O 0.7249(5) 0.3581(6) 0.2156(5) 0.063(2) Uani 1 d . . 
C3 C 0.9038(6) 0.1381(8) 0.2760(6) 0.041(2) Uani 1 d . . 
O3 O 0.9783(4) 0.1387(6) 0.2501(5) 0.062(2) Uani 1 d . . 
C4 C 0.6420(7) 0.1408(8) 0.3617(6) 0.047(2) Uani 1 d . . 
O4 O 0.5678(5) 0.1426(7) 0.3840(5) 0.068(2) Uani 1 d . . 
C5 C 0.8892(13) 0.0000 0.5680(9) 0.051(4) Uani 1 d S . 
F1 F 0.9354(9) -0.0850(10) 0.5815(6) 0.189(6) Uani 1 d . . 
F2 F 0.8220(12) 0.0000 0.6200(9) 0.190(8) Uani 1 d S . 
C11 C 0.7969(8) 0.0000 0.1232(7) 0.032(3) Uani 1 d S . 
H11 H 0.8610(8) 0.0000 0.1413(7) 0.034(23) Uiso 1 d SR . 
C12 C 0.7903(7) 0.1094(8) 0.0699(6) 0.048(2) Uani 1 d . . 
H12A H 0.7940(7) 0.1787(8) 0.1026(6) 0.048(9) Uiso 1 d R . 
H12B H 0.7302(7) 0.1088(8) 0.0436(6) 0.048(9) Uiso 1 d R . 
C13 C 0.8660(7) 0.1084(8) 0.0071(6) 0.052(3) Uani 1 d . . 
H13A H 0.9256(7) 0.1139(8) 0.0339(6) 0.048(9) Uiso 1 d R . 
H13B H 0.8589(7) 0.1767(8) -0.0261(6) 0.048(9) Uiso 1 d R . 
C14 C 0.8652(9) 0.0000 -0.0427(8) 0.047(3) Uani 1 d S . 
H14A H 0.9189(9) 0.0000 -0.0771(8) 0.048(9) Uiso 1 d SR . 
H14B H 0.8098(9) 0.0000 -0.0756(8) 0.048(9) Uiso 1 d SR . 
C21 C 0.5974(7) 0.0000 0.1903(7) 0.030(3) Uani 1 d S . 
H21 H 0.5663(7) 0.0000 0.2410(7) 0.034(23) Uiso 1 d SR . 
C22 C 0.5610(6) 0.1110(8) 0.1500(7) 0.049(3) Uani 1 d . . 
H22A H 0.5867(6) 0.1160(8) 0.0972(7) 0.048(9) Uiso 1 d R . 
H22B H 0.5815(6) 0.1784(8) 0.1800(7) 0.048(9) Uiso 1 d R . 
C23 C 0.4556(6) 0.1090(9) 0.1443(8) 0.065(3) Uani 1 d . . 
H23A H 0.4337(6) 0.1761(9) 0.1147(8) 0.048(9) Uiso 1 d R . 
H23B H 0.4310(6) 0.1146(9) 0.1975(8) 0.048(9) Uiso 1 d R . 
C24 C 0.4162(9) 0.0000 0.1060(10) 0.064(5) Uani 1 d S . 
H24A H 0.4333(9) 0.0000 0.0506(10) 0.048(9) Uiso 1 d SR . 
H24B H 0.3489(9) 0.0000 0.1088(10) 0.048(9) Uiso 1 d SR . 
 
loop_ 
 _atom_site_aniso_label 
 _atom_site_aniso_U_11 
 _atom_site_aniso_U_22 
 _atom_site_aniso_U_33 
 _atom_site_aniso_U_23 
 _atom_site_aniso_U_13 
 _atom_site_aniso_U_12 
Re1 0.0380(2) 0.0334(2) 0.0271(2) -0.0024(2) -0.00391(13) -0.0021(2) 
Hg1 0.0576(3) 0.0546(3) 0.0277(3) 0.000 -0.0114(2) 0.000 
P1 0.0253(14) 0.0287(14) 0.027(2) 0.000 -0.0011(12) 0.000 
C1 0.057(6) 0.054(6) 0.042(6) -0.009(5) -0.015(5) 0.001(5) 
O1 0.096(6) 0.086(6) 0.040(4) -0.029(4) -0.015(4) -0.009(5) 
C2 0.040(5) 0.047(5) 0.038(6) -0.007(5) 0.001(4) -0.001(4) 
O2 0.077(5) 0.049(4) 0.063(5) 0.021(4) -0.002(4) 0.017(4) 
C3 0.045(5) 0.038(5) 0.042(5) 0.004(4) -0.012(4) -0.010(4) 
O3 0.035(4) 0.064(5) 0.088(6) 0.012(4) 0.007(4) -0.006(4) 
C4 0.057(6) 0.046(6) 0.039(5) -0.011(5) 0.004(5) -0.008(5) 
O4 0.050(4) 0.083(5) 0.071(6) -0.022(5) 0.017(4) 0.002(4) 
C5 0.083(11) 0.037(7) 0.032(8) 0.000 -0.014(8) 0.000 
F1 0.291(16) 0.171(9) 0.105(8) -0.005(8) -0.098(10) 0.094(10) 
F2 0.155(13) 0.347(27) 0.068(10) 0.000 -0.027(10) 0.000 
C11 0.031(6) 0.032(6) 0.032(7) 0.000 -0.004(5) 0.000 
C12 0.055(6) 0.039(5) 0.049(6) 0.009(5) 0.014(5) 0.014(5) 
C13 0.048(5) 0.052(6) 0.055(7) 0.017(5) 0.010(5) 0.006(5) 
C14 0.035(7) 0.077(10) 0.029(7) 0.000 0.010(6) 0.000 
C21 0.025(5) 0.036(6) 0.029(6) 0.000 0.005(5) 0.000 
C22 0.032(5) 0.046(5) 0.070(7) 0.011(5) -0.007(5) 0.007(4) 
C23 0.030(5) 0.062(6) 0.102(10) 0.022(7) -0.014(6) 0.009(5) 
C24 0.024(6) 0.098(13) 0.071(11) 0.000 -0.003(7) 0.000 
 
_geom_special_details 
; 
 All esds (except the esd in the dihedral angle between two l.s. planes) 
 are estimated using the full covariance matrix.  The cell esds are taken 
 into account individually in the estimation of esds in distances, angles 
 and torsion angles; correlations between esds in cell parameters are only 
 used when they are defined by crystal symmetry.  An approximate (isotropic) 
 treatment of cell esds is used for estimating esds involving l.s. planes. 
; 
 
loop_ 
 _geom_bond_atom_site_label_1 
 _geom_bond_atom_site_label_2 
 _geom_bond_distance 
 _geom_bond_site_symmetry_2 
 _geom_bond_publ_flag 
Re1 C2 1.940(10) . ? 
Re1 C1 1.962(10) . ? 
Re1 C3 1.994(10) . ? 
Re1 C4 2.010(10) . ? 
Re1 P1 2.451(2) . ? 
Re1 Hg1 2.7993(6) . ? 
Re1 Re1 3.2335(9) 6 ? 
Hg1 C5 2.213(14) . ? 
Hg1 Re1 2.7993(6) 6 ? 
P1 C11 1.855(13) . ? 
P1 C21 1.857(10) . ? 
P1 Re1 2.451(2) 6 ? 
C1 O1 1.132(11) . ? 
C2 O2 1.124(10) . ? 
C3 O3 1.149(11) . ? 
C4 O4 1.123(11) . ? 
C5 F1 1.190(12) 6 ? 
C5 F1 1.190(12) . ? 
C5 F2 1.30(2) . ? 
C11 C12 1.533(11) 6 ? 
C11 C12 1.533(11) . ? 
C12 C13 1.509(13) . ? 
C13 C14 1.488(12) . ? 
C14 C13 1.488(12) 6 ? 
C21 C22 1.521(10) . ? 
C21 C22 1.521(10) 6 ? 
C22 C23 1.504(11) . ? 
C23 C24 1.503(13) . ? 
C24 C23 1.503(13) 6 ? 
 
loop_ 
 _geom_angle_atom_site_label_1 
 _geom_angle_atom_site_label_2 
 _geom_angle_atom_site_label_3 
 _geom_angle 
 _geom_angle_site_symmetry_1 
 _geom_angle_site_symmetry_3 
 _geom_angle_publ_flag 
C2 Re1 C1 88.6(4) . . ? 
C2 Re1 C3 92.4(4) . . ? 
C1 Re1 C3 89.5(4) . . ? 
C2 Re1 C4 89.7(4) . . ? 
C1 Re1 C4 90.7(4) . . ? 
C3 Re1 C4 177.8(4) . . ? 
C2 Re1 P1 94.2(3) . . ? 
C1 Re1 P1 177.2(3) . . ? 
C3 Re1 P1 90.0(3) . . ? 
C4 Re1 P1 89.7(3) . . ? 
C2 Re1 Hg1 162.3(3) . . ? 
C1 Re1 Hg1 73.8(3) . . ? 
C3 Re1 Hg1 89.1(2) . . ? 
C4 Re1 Hg1 88.9(3) . . ? 
P1 Re1 Hg1 103.44(5) . . ? 
C2 Re1 Re1 142.9(3) . 6 ? 
C1 Re1 Re1 128.5(3) . 6 ? 
C3 Re1 Re1 88.7(2) . 6 ? 
C4 Re1 Re1 89.5(3) . 6 ? 
P1 Re1 Re1 48.72(5) . 6 ? 
Hg1 Re1 Re1 54.722(11) . 6 ? 
C5 Hg1 Re1 144.69(2) . 6 ? 
C5 Hg1 Re1 144.69(2) . . ? 
Re1 Hg1 Re1 70.56(2) 6 . ? 
C11 P1 C21 111.1(5) . . ? 
C11 P1 Re1 115.1(3) . . ? 
C21 P1 Re1 115.2(3) . . ? 
C11 P1 Re1 115.1(3) . 6 ? 
C21 P1 Re1 115.2(3) . 6 ? 
Re1 P1 Re1 82.55(9) . 6 ? 
O1 C1 Re1 175.4(9) . . ? 
O2 C2 Re1 178.1(8) . . ? 
O3 C3 Re1 177.6(8) . . ? 
O4 C4 Re1 177.4(9) . . ? 
F1 C5 F1 108.6(19) 6 . ? 
F1 C5 F2 106.4(12) 6 . ? 
F1 C5 F2 106.4(12) . . ? 
F1 C5 Hg1 112.5(9) 6 . ? 
F1 C5 Hg1 112.5(9) . . ? 
F2 C5 Hg1 110.0(12) . . ? 
C12 C11 C12 108.5(10) 6 . ? 
C12 C11 P1 116.7(6) 6 . ? 
C12 C11 P1 116.7(6) . . ? 
C13 C12 C11 110.8(8) . . ? 
C14 C13 C12 113.2(9) . . ? 
C13 C14 C13 111.9(11) . 6 ? 
C22 C21 C22 112.2(10) . 6 ? 
C22 C21 P1 115.4(5) . . ? 
C22 C21 P1 115.4(5) 6 . ? 
C23 C22 C21 110.7(8) . . ? 
C24 C23 C22 114.2(9) . . ? 
C23 C24 C23 111.2(12) . 6 ? 
 
_refine_diff_density_max    1.169 
_refine_diff_density_min   -1.071 
_refine_diff_density_rms    0.223 

