data_global

_audit_update_record
;
2011-06-10 # Formatted by publCIF

2011-06-21 # Formatted by IUCr publCIF system



#=======================================================================

# 1. SUBMISSION DETAILS

_publ_contact_author_name         'Professor Wei-guang Zhang'
_publ_contact_author_address
;
School of Chemistry and Environment,
South China Normal University,
Guangzhou 510006, 
People's Republic of China
;

_publ_contact_author_phone        '86 20 39310210'
_publ_contact_author_fax          '86 20 39310187'
_publ_contact_author_email        wgzhang@scnu.edu.cn
_publ_requested_journal           'Acta Crystallographica Section E'
_publ_requested_category          FM
_publ_requested_coeditor_name     ?

_publ_contact_letter
;
dear sir, 
Please consider this CIF submission for publication in Acta 
Crystallographica Section C.
All required files have been provided.
All authors have seen and approved this submission.
Yours sincerely,
Prof. Wei-guang Zhang
;

#=======================================================================

# 2. PROCESSING SUMMARY (IUCr Office Use Only)

_journal_date_recd_electronic     2011-06-21
_journal_date_to_coeditor         ?
_journal_date_from_coeditor       2011-10-11
_journal_date_accepted            2011-10-11
_journal_date_printers_first      ?
_journal_date_printers_final      ?
_journal_date_proofs_out          ?
_journal_date_proofs_in           ?
_journal_coeditor_name            ?
_journal_coeditor_code            QS3005
_journal_paper_category          FM
_journal_coeditor_notes
?
_journal_techeditor_code          E114183
_iucr_compatibility_tag          ACTA95
_journal_techeditor_notes
?
_journal_coden_ASTM               ACSCEE
_journal_name_full                'Acta Crystallographica, Section E'
_journal_year                     2011
_journal_volume                   67
_journal_issue                    11
_journal_page_first               em346
_journal_page_last                em350
_journal_suppl_publ_number        ?
_journal_suppl_publ_pages         ?

#============================================================================

# 3. TITLE AND AUTHOR LIST

_publ_section_title
;
Two mononuclear octahedral complexes with benzimidazole-2-carboxylate:
supramolecular networks constructed by hydrogen bonds
;

loop_
_publ_author_name
_publ_author_address
'Fan, Jun'
;
School of Chemistry and Environment,
South China Normal University,
Guangzhou 510006,
People's Republic of China 
;
'Cai, Song-Liang' 
;
School of Chemistry and Environment,
South China Normal University,
Guangzhou 510006,
People's Republic of China
;
'Zheng, Sheng-Run' 
;
School of Chemistry and Environment,
South China Normal University,
Guangzhou 510006,
People's Republic of China
;
'Zhang, Wei-Guang'  
;
School of Chemistry and Environment,
South China Normal University,
Guangzhou 510006,
People's Republic of China
;

# Related literature generated by publCIF 2008-09-25
_publ_section_related_literature
;
For general background, see: Jiang, <i>et al.</i> (2008); Jiang, <i>et al.</i>
(2009); Kitaura, <i>et al.</i> (2003); Madalan, <i>et al.</i> (2006); Moulton
& Zaworotko, (2001); Roesky & Andruh, (2003); For related compounds, see:
Dutta, <i>et al.</i> (1981); Rettig, <i>et al.</i> (1999); Saczewski, <i>et
al.</i> (2006); Zheng <i>et al.</i>(2011).
;

_publ_section_abstract
;\
The title compounds,
<i>trans</i>-bis(1<i>H</i>-benzimidazole-2-carboxylato-\k^2^<i>N</i>^3^,\
<i>O</i>)bis(ethanol-\k<i>O</i>)cadmium,
[Cd(C~8~H~5~N~2~O~2~)~2~(C~2~H~6~O)~2~], (I), and
<i>trans</i>-bis(1<i>H</i>-benzimidazole-\k<i>N</i>^3^)bis(1<i>H</i>-\
benzimidazole-2-carboxylato-\k^2^<i>N</i>^3^,<i>O</i>)nickel(II),
[Ni(C~8~H~5~N~2~O~2~)~2~(C~7~H~6~N~2~)~2~], (II), are hydrogen-bonded
supramolecular complexes. In (I), the Cd^II^ ion is six-coordinated by two O
atoms from two ethanol molecules, and by two O and two N atoms from two
bidentate benzimidazole-2-carboxylate (HBIC) ligands, giving a distorted
octahedral geometry. The combination of O---H...O and N---H...O hydrogen bonds
results in two-dimensional layers parallel to the <i>ab</i> plane. In (II),
the six-coordinated Ni^II^ atom shows a similar distorted octahedral geometry
to the Cd^II^ ion in (I); two benzimidazole molecules occupy the axial sites
and the equatorial plane contains two chelating HBIC ligands. Pairs of
N---H...O hydrogen bonds between two HBIC anions connect adjacent Ni^II^
coordination units to form a one-dimensional chain parallel to the <i>a</i>
axis. Moreover, these one-dimensional chains are further linked <i>via</i>
N---H...O hydrogen bonds between HBIC anions and benzimidazole molecules to
generate a three-dimensional supramolecular framework. The two compounds show
quite different supramolecular networks, which may be explained by the fact
that different coligands occupy the axial sites in the coordination units.
;

_publ_section_comment
;\
The design and construction of coordination architectures with unprecedented
topologies have attracted considerable attention over recent decades (Moulton
& Zaworotko, 2001; Roesky & Andruh, 2003). Discrete
coordination assemblies
are linked through numerous weak interactions, such as hydrogen bonds and
\p--\p stacking, thereby resulting in higher-dimensional supramolecular
networks with multiple structural features and properties (Kitaura <i>et
al.</i>, 2003; Custelcean <i>et al.</i>, 2006; Madalan <i>et
al.</i>, 2006;
Jiang <i>et al.</i>, 2008, 2009). It has been demonstrated that
the number and
orientation of weak attraction sites on the discrete building blocks have a
significant effect on the resulting supramolecular structures. Thus, minor
changes in interaction sites in the building blocks may affect the packing and
even the overall network. Related studies will help us rationally design
crystallized materials with desirable structures.

Assembly of the complexes based on bis(chelating) bridging ligands has been of
intense interest, mainly because of the multiple coordination modes of these
ligands, intriguing structural features and potential properties of the
resulting complexes (Zhang, Cheng <i>et al.</i>, 2008; Zhang, Ma <i>et
al.</i>, 2008; Colacio <i>et al.</i>, 2009; Mota <i>et al.</i>,
2010). For
example, a great many magnetically ordered materials based on oxalate and its
derivatives have been explored in recent years (Ruiz <i>et al.</i>,
1999; Xu
<i>et al.</i>, 2007; Train <i>et al.</i>, 2008).
Benzimidazole-2-carboxylic
acid (H~2~BIC) represents a new kind of bis(chelating) bridging ligand and is
less well explored than oxalate and its derivatives. Until now, several
complexes constructed from H~2~BIC molecules have been investigated, and they
exhibited low-dimensional structural features, such as mononuclear, discrete
six-membered rings and a two-dimensional honeycomb network containing
bowl-shaped voids (Dutta & Satapathi, 1981; Rettig <i>et al.</i>,
1999;
Saczewski <i>et al.</i>, 2006; Zheng <i>et al.</i>, 2011). In
this work, we
present the structures and supramolecular assembly <i>via</i> hydrogen bonds
of two new complexes with H~2~BIC ligands, namely,
<i>trans</i>-bis(1<i>H</i>-benzimidazole-2-carboxylato-\k^2^<i>N</i>^3^,\
<i>O</i>)bis(ethanol-\k<i>O</i>)cadmium, (I), and
<i>trans</i>-bis(1<i>H</i>-benzimidazole-2-carboxylato-\k^2^<i>N</i>^3^,\
<i>O</i>)bis(1<i>H</i>-benzimidazole-\k<i>N</i>^3^)nickel(II), (II). Both
possess similar mononuclear structures and one-dimensional hydrogen-bonding
chains, but different hydrogen bonds involving the group on the axial sites
result in quite different higher-dimensional networks.

The molecule of complex (I) consists of one Cd^II^ ion, two HBIC anions (HBIC
is benzimidazole-2-carboxylate) and two ligated ethanol molecules (Fig. 1),
while in complex (II), the asymmetric unit only contains half a Ni^II^ ion,
one HBIC anion and one benzimidazole molecule as the Ni^II^ ion lies on a
crystallographic inversion centre (Fig. 2). (I) and (II) are mononuclear
complexes, in which the metal centre displays a distorted octahedral
coordination geometry completed by two N atoms and two O atoms from two
bidentate chelating HBIC ligands in the equatorial plane, and two donors from
the different coligands in axial sites [O atoms from two ethanol molecules in
(I) and N atoms from two benzimidazole molecules in (II)]. Selected bond
lengths and angles for the title compounds are listed in Table 1 and the
<i>M</i>---O and <i>M</i>---N bond distances [<i>M</i> = Cd in (I) and Ni in
(II)] are in the normal ranges (Sarma <i>et al.</i>, 2009; Yang & Wu,
2009).
In (I), two <i>trans</i>-oriented HBIC ligands at the equatorial positions are
almost coplanar, with a dihedral angle between the Cd1/N1/O1 and Cd1/N3/O3
planes of 9.97\%. Two ligated ethanol molecules occupy the axial sites and the
axial O5---Cd1---O6 angle [179.94(19)\%] deviates only slightly from 180\%. In
(II), two HBIC anions also occupy the equatorial plane, forming five-membered
chelate rings and the dihedral angle between the Ni1/N1/O1 and Ni1/N1^i^/O1^i^
planes [symmetry code: (i) -<i>x</i>+2, -<i>y</i>, -<i>z</i>] is 0\%.

In the title compounds, pairs of N---H...O hydrogen bonds are formed between
pairs of HBIC anions from adjacent mononuclear building blocks
[N2---H2...O4^ii^ and N4---H4...O2^iii^, symmetry codes: (ii) <i>x</i>+1,
<i>y</i>-1, <i>z</i>; (iii) <i>x</i>-1, <i>y</i>+1, <i>z</i> for (I);
N2---H2...O2^iv^, symmetry code: (iv) -<i>x</i>+1, -<i>y</i>, -<i>z</i> for
(II)], which yield centrosymmetric <i>R</i>~2~^2^(10) rings. Thus, the
connection of these hydrogen bonds leads to similar one-dimensional chain-like
structures in both complexes (Fig. 3). However, further investigation
indicates that these one-dimensional chains are arranged in a quite different
manner through the linkage of intermolecular attractions, thereby resulting in
quite different supramolecular frameworks, mainly due to the difference in the
apical ligand of the metal centres.

In compound (I), two ligated ethanol molecules act as hydrogen-bond donors to
form two hydrogen bonds with carboxylate O atoms (O1 and O3) of HBIC ligands
from adjacent one-dimensional chains. The angle between the ethanol O---H
group and the equatorial plane is 81.027\% and this orientation of the
hydrogen-bond donor favours the formation of a ring. Thus, intermolecular
O5---H5...O3^v^ and O6---H6...O1^vi^ hydrogen bonds between adjacent
mononuclear building units [symmetry codes: (v) <i>x</i>+1, <i>y</i>,
<i>z</i>; (vi) <i>x</i>-1, <i>y</i>, <i>z</i>], which generate
<i>R</i>~2~^2^(8) rings, serve to further link the one-dimensional chains into
an extended two-dimensional supramolecular layer, which runs along the
<i>ab</i> plane (Fig. 4). In the structure of (I), all potential strong
hydrogen-bonding sites are involved in the formation of hydrogen bonds in the
two-dimensional supramolecular network.

In compound (II), benzimidazole molecules occupying the axial sites also act as
hydrogen-bond donors to generate N4---H4...O1^vii^ hydrogen bonds [symmetry
code: (vii) -<i>x</i>+2, <i>y</i>+1/2, -<i>z</i>+1/2], with carboxylate O
atoms (O2) of HBIC anions. Although the angle between the benzimidazole N---H
group and the equatorial plane is 44.891\% and the orientation of the
hydrogen-bond donor in (II) is not suitable for the formation of a
hydrogen-bond ring, these hydrogen-bond interaction sites cannot be restrained
in a two-dimensional layer, thereby resulting in a three-dimensional
supramolecular network (Fig. 5).

The topological analysis approach was employed to better describe the
structural characteristics of (II). The topology of this three-dimensional
supramolecular framework can be simplified by considering the Ni^II^
coordination units as six-connected nodes and the intermolecular hydrogen
bonds as two-connected linkers between these nodes. As a result, a
three-dimensional network structure of 4^12^.6^3^-pcu topology is formed.

IR spectra of the two compounds show characteristic absorptions for the
carboxylate stretching vibrations. The characteristic bands of carboxylate
groups are seen in the range 1648--1520 cm^-1^ for asymmetric stretching and
1490--1458 cm^-1^ for symmetric stretching (Zheng <i>et al.</i>, 2011).
The
absence of strong absorption peaks around 1700 cm^-1^ indicates that all
carboxyl groups (--COOH) are deprotonated. Moreover, a strong and broad
absorption band at 3587 cm^-1^ is assigned to the \n(O---H) vibration of
ethanol molecules in complex (I).

In summary, two new complexes were constructed from the reaction between
various metal salts and H~2~BIC molecules with different coligands. They show
a similar mononuclear structure, where the metal ions reside in a distorted
octahedral coordination environment and in which two bidentate chelating HBIC
anions exist in the equatorial positions. However, intermolecular hydrogen
bonds link discrete coordination units to form different supramolecular
networks.
;

_publ_section_acknowledgements
;
The authors gratefully acknowledge financial support from the National Natural
Science Foundation of China (grant Nos. 20771040 and 21003053), the Ministry
of Science and Technology of China (grant No. 10C26214412704) and Guangdong
Science and Technology Department (grant No. 2010B090300031).
;

_publ_section_references
;
Bruker (2002). <i>SADABS</i>. Version 2.10. Bruker AXS Inc., Madison,
Wisconsin, USA.

Bruker (2004). <i>APEX2</i>. Version 6.12. Bruker AXS Inc., Madison, Wisconsin,
USA.

Colacio, E., Aouryaghal, H., Mota, A. J., Cano, J., Sillanp, R. & Dieguez, A.
R. (2009). <i>CrystEngComm</i>, <b>11</b>, 2054--2064.

Custelcean, R., Moyer, B. A., Bryantsev, V. S. & Hay, B. P. (2006). <i>Cryst.
Growth Des.</i> <b>6</b>, 555--563.

Dutta, R. L. & Satapathi, S. K. (1981). <i>J. Inorg. Nucl. Chem.</i> <b>43</b>,
1533--1539.

Jiang, J. J., Li, L., Yang, T., Kuang, D. B., Wang, W. & Su, C. Y. (2009).
<i>Chem. Commun.</i> pp. 2387--2389.

Jiang, J. J., Zheng, S. R., Liu, Y., Pan, M., Wang, W. & Su, C. Y. (2008).
<i>Inorg. Chem.</i> <b>47</b>, 10692--10699.

Kitaura, R., Seki, K., Akiyama, G. & Kitagawa, S. (2003). <i>Angew. Chem. Int.
Ed.</i> <b>42</b>, 428--431.

Kuleshova, L. N., Khrustalev, V. N., Suponitsky, K. Y., Antipin, M. Y., Gusev,
D. V. & Bobrikova, E. S. (2003). Kristallografiya, <b>48</b>, 78--88;
Crystallogr. Rep. <b>48</b>, 73--83.

Madalan, A. M., Avarvari, N. & Andruh, M. (2006). <i>Cryst. Growth Des.</i>
<b>6</b>, 1671--1675.

Mota, A. J., Dieguez, A. R., Palacios, M. A., Herrera, J. M., Luneau, D. &
Colacio, E. (2010). <i>Inorg. Chem.</i> <b>49</b>, 8986--8996.

Moulton, B. & Zaworotko, M. J. (2001). <i>Chem. Rev.</i> <b>101</b>,
1629--1658.

Rettig, S. J., Storr, A. & Trotter, T. (1999). <i>Can. J. Chem.</i> <b>77</b>,
434--438.

Roesky, H. W. & Andruh, M. (2003). <i>Coord. Chem. Rev.</i> <b>236</b>,
91--119.

Ruiz, R., Faus, J., Lloret, F., Julve, M. & Journaux, Y. (1999). <i>Coord.
Chem. Rev.</i> <b>193</b>, 1069--1117.

Saczewski, F., Dziemidowicz-Borys, E., Bednarski, P. J., Gruenert, R., Gdaniec,
M. & Tabin, P. (2006). <i>J. Inorg. Biochem.</i> <b>100</b>, 1389--1398.

Sarma, D., Ramanujachary, K. V., Lofland, S. E., Magdaleno, T. & Natarajan, S.
(2009). <i>Inorg. Chem.</i> <b>48</b>, 11660--11676.

Sheldrick, G. M. (2008). <i>Acta Cryst.</i> A<b>64</b>, 112--122.

Spek, A. L. (2009). <i>Acta Cryst.</i> D<b>65</b>, 148--155.

Train, C., Gheorghe, R., Krstic, V., Chamoreau, L. M., Ovanesyan, N. S.,
Rikken, G. L. J. A., Gruselle, M. & Verdaguer, M. (2008). <i>Nat. Mater.</i>
<b>7</b>, 729--734.

Xu, H. B., Wang, Z. M., Liu, T. & Gao, S. (2007). <i>Inorg. Chem.</i>
<b>46</b>, 3089--3096.

Yang, P. & Wu, J.-Z. (2009). <i>Acta Cryst.</i> C<b>65</b>, m4--m6.

Zhang, J. Y., Cheng, A. L., Yue, Q., Sun, W. W. & Gao, E. Q. (2008). <i>Chem.
Commun.</i> pp. 847--849.

Zhang, J. Y., Ma, Y., Cheng, A. L., Yue, Q., Sun, Q. & Gao, E. Q. (2008).
<i>Dalton Trans.</i> pp. 2061--2066.

Zheng, S. R., Cai, S. L., Fan, J., Xiao, T. T. & Zhang, W. G. (2011). <i>Inorg.
Chem. Commun.</i> <b>14</b>, 818--821.
;

_publ_section_figure_captions
;
Fig. 1. The molecular structure of (I), showing the atom-numbering scheme.
Displacement ellipsoids are shown at the 30% probability level. All H atoms
are drawn as spheres of arbitrary radii.

Fig. 2. The molecular structure of (II), with displacement ellipsoids at the
30% probability level. [Symmetry code: (i) -<i>x</i>+2, -<i>y</i>, -<i>z</i>.]

Fig. 3. (<i>a</i>) A packing diagram of (I), showing a one-dimensional chain
formed by pairs of intermolecular hydrogen bonds (dashed lines). (<i>b</i>) A
packing diagram of (II), showing a one-dimensional chain. Dashed lines
represent N---H...O interactions.

Fig. 4. A packing diagram of (I), showing the two-dimensional layer-like
structure along the <i>ab</i> plane. Dashed lines represent hydrogen-bonding
interactions.

Fig. 5. A packing diagram of (II), showing the three-dimensional supramolecular
network formed by intermolecular hydrogen bonds (dashed lines).
;

_publ_section_exptl_prep
;
For the synthesis of complex (I), benzimidazole-2-carboxylic acid (H~2~BIC,
16.2 mg, 0.10 mmol) was dissolved in water (5 ml) and the pH was adjusted to
about 8 with NaOH solution. A solution of Cd(ClO~4~)~2~.6H~2~O (41.9 mg, 0.10
mmol) in ethanol (5 ml) was then layered on the aqueous H~2~BIC solution. The
system was left for about 2 months at room temperature and colourless
block-shaped crystals of (I) were obtained by filtration (yield 56%). IR (KBr
pellet, \n, cm^-1^): 3587 (<i>s</i>), 3100 (<i>s</i>), 1648 (<i>s</i>), 1582
(<i>w</i>), 1520 (<i>s</i>), 1484 (<i>m</i>), 1458 (<i>s</i>), 1391
(<i>m</i>), 1331 (<i>s</i>), 1212 (<i>w</i>), 1147 (<i>w</i>), 1018
(<i>s</i>), 994 (<i>w</i>), 948 (<i>w</i>), 911 (<i>w</i>), 857 (<i>m</i>),
819 (<i>m</i>), 757 (<i>s</i>), 631 (<i>w</i>), 593 (<i>w</i>), 547
(<i>w</i>), 436 (<i>w</i>).

For the preparation of (II), a mixture of NiCl~2~.6H~2~O (23.8 mg, 0.10 mmol),
H~2~BIC (16.2 mg, 0.10 mmol) and benzimidazole (11.8 mg, 0.10 mmol) in
H~2~O--C~2~H~5~OH (3:1<i>v</i>/<i>v</i>, 4 ml) was sealed in a sample bottle
reactor (10 ml), and heated at 383 K under autogenous pressure for 48 h. After
the sample was cooled to room temperature at a rate of 5 K h^-1^, block-shaped
pale-purple crystals of (II) were collected (yield, 68%). IR (KBr pellet, \n,
cm^-1^): 3098 (<i>s</i>), 1627 (<i>s</i>), 1614 (<i>s</i>), 1523 (<i>m</i>),
1490 (<i>m</i>), 1464 (<i>s</i>), 1391 (<i>s</i>), 1372 (<i>w</i>), 1343
(<i>s</i>), 1302 (<i>w</i>), 1273 (<i>w</i>), 1145 (<i>w</i>), 1023
(<i>m</i>), 966 (<i>w</i>), 914 (<i>w</i>), 858 (<i>w</i>), 823 (<i>m</i>),
766 (<i>w</i>), 743 (<i>s</i>), 637 (<i>w</i>), 597 (<i>w</i>), 433
(<i>w</i>).
;

_publ_section_exptl_refinement
;
A SIMU instruction (<i>SHELXL97</i>; Sheldrick, 2008) was used for
several C
atoms with large displacement parameters in the refinement of both structures.
H atoms of the ethanol molecules were located in difference Fourier maps and
the others were placed in calculated positions and refined as riding atoms,
with isotropic displacement parameters [C---H = 0.97 \%A (methyl), 0.96 \%A
(methylene) and 0.93 \%A (aromatic), and N---H = 0.86 \%A; <i>U</i>~iso~(H) =
1.2<i>U</i>~eq~(C), 1.2<i>U</i>~eq~(N) and 1.5<i>U</i>~eq~(O)].
;

#==============================================================================

data_I 
 
_audit_creation_method            SHELXL-97 
_chemical_name_systematic 
; 
<i>trans</i>-bis(1<i>H</i>-benzimidazole-2-carboxylato-
\k^2^<i>N</i>^3^,<i>O</i>)bis(ethanol-\k<i>O</i>)cadmium
;
_chemical_formula_iupac 
'[Cd (C8 H5 N2 O2)2 (C2 H6 O)2]'
_chemical_name_common             ? 
_chemical_melting_point           ? 
_chemical_formula_moiety          'C20 H22 Cd N4 O6' 
_chemical_formula_sum 
 'C20 H22 Cd N4 O6' 
_chemical_formula_weight          526.82 
 
loop_ 
 _atom_type_symbol 
 _atom_type_description 
 _atom_type_scat_dispersion_real 
 _atom_type_scat_dispersion_imag 
 _atom_type_scat_source 
 'C'  'C'   0.0033   0.0016 
 'International Tables Vol C Tables 4.2.6.8 and 6.1.1.4' 
 'H'  'H'   0.0000   0.0000 
 'International Tables Vol C Tables 4.2.6.8 and 6.1.1.4' 
 'Cd'  'Cd'  -0.8075   1.2024 
 'International Tables Vol C Tables 4.2.6.8 and 6.1.1.4' 
 'N'  'N'   0.0061   0.0033 
 'International Tables Vol C Tables 4.2.6.8 and 6.1.1.4' 
 'O'  'O'   0.0106   0.0060 
 'International Tables Vol C Tables 4.2.6.8 and 6.1.1.4' 
 
_symmetry_cell_setting           triclinic
_symmetry_space_group_name_H-M   'P -1'
_symmetry_space_group_name_Hall  '-P 1'
 
loop_ 
 _symmetry_equiv_pos_as_xyz 
 'x, y, z' 
 '-x, -y, -z' 
 
_cell_length_a                    5.4761(11) 
_cell_length_b                    10.477(2) 
_cell_length_c                    19.896(4) 
_cell_angle_alpha                 75.31(3) 
_cell_angle_beta                  88.67(3) 
_cell_angle_gamma                 78.54(3) 
_cell_volume                      1081.7(4) 
_cell_formula_units_Z             2 
_cell_measurement_temperature     298(2) 
_cell_measurement_reflns_used     3684 
_cell_measurement_theta_min       2.05 
_cell_measurement_theta_max       28.04
 
_exptl_crystal_description        block
_exptl_crystal_colour             colorless
_exptl_crystal_size_max           0.35 
_exptl_crystal_size_mid           0.28 
_exptl_crystal_size_min           0.22 
_exptl_crystal_density_meas       ? 
_exptl_crystal_density_diffrn     1.617 
_exptl_crystal_density_method     'not measured' 
_exptl_crystal_F_000              532 
_exptl_absorpt_coefficient_mu     1.053 
_exptl_absorpt_correction_type    multi-scan 
_exptl_absorpt_correction_T_min   0.7094 
_exptl_absorpt_correction_T_max   0.8013 
_exptl_absorpt_process_details    '(SADABS; Bruker, 2002)'
 
_exptl_special_details 
; 
; 
 
_diffrn_ambient_temperature       298(2) 
_diffrn_radiation_wavelength      0.71073 
_diffrn_radiation_type            MoK\a 
_diffrn_radiation_source          'fine-focus sealed tube' 
_diffrn_radiation_monochromator   graphite 
_diffrn_measurement_device_type   'Bruker SMART APEXII CCD area-detector' 
_diffrn_measurement_method        '\f and \w' 
_diffrn_detector_area_resol_mean  ? 
_diffrn_standards_number          ? 
_diffrn_standards_interval_count  ? 
_diffrn_standards_interval_time   ? 
_diffrn_standards_decay_%         ? 
_diffrn_reflns_number             5344 
_diffrn_reflns_av_R_equivalents   0.0205 
_diffrn_reflns_av_sigmaI/netI     0.0457 
_diffrn_reflns_limit_h_min        -6 
_diffrn_reflns_limit_h_max        6 
_diffrn_reflns_limit_k_min        -8 
_diffrn_reflns_limit_k_max        12 
_diffrn_reflns_limit_l_min        -23 
_diffrn_reflns_limit_l_max        23 
_diffrn_reflns_theta_min          2.05 
_diffrn_reflns_theta_max          25.25 
_reflns_number_total              3804 
_reflns_number_gt                 3228 
_reflns_threshold_expression      I>2\s(I) 
 
_computing_data_collection         'APEX2 (Bruker, 2004)'  
_computing_cell_refinement         'SAINT (Bruker, 2004)'  
_computing_data_reduction          'SAINT (Bruker, 2004)'  
_computing_structure_solution      'SHELXS97 (Sheldrick, 2008)' 
_computing_structure_refinement    'SHELXL97 (Sheldrick, 2008)' 
_computing_molecular_graphics      'XP in SHELXTL (Bruker, 2004)'   
_computing_publication_material    'SHELXL97 (Sheldrick, 2008)' 
 
_refine_special_details 
; 
 Refinement of F^2^ against ALL reflections.  The weighted R-factor wR and 
 goodness of fit S are based on F^2^, conventional R-factors R are based 
 on F, with F set to zero for negative F^2^. The threshold expression of 
 F^2^ > 2sigma(F^2^) is used only for calculating R-factors(gt) etc. and is 
 not relevant to the choice of reflections for refinement.  R-factors based 
 on F^2^ are statistically about twice as large as those based on F, and R- 
 factors based on ALL data will be even larger. 
; 
 
_refine_ls_structure_factor_coef  Fsqd  
_refine_ls_matrix_type            full 
_refine_ls_weighting_scheme       calc  
_refine_ls_weighting_details 
 'calc w=1/[\s^2^(Fo^2^)+(0.0910P)^2^+0.8152P] where P=(Fo^2^+2Fc^2^)/3' 
_atom_sites_solution_primary      direct 
_atom_sites_solution_secondary    difmap 
_atom_sites_solution_hydrogens    geom 
_refine_ls_hydrogen_treatment     constr 
_refine_ls_extinction_method      none 
_refine_ls_extinction_coef        ? 
_refine_ls_number_reflns          3804 
_refine_ls_number_parameters      270 
_refine_ls_number_restraints      12 
_refine_ls_R_factor_all           0.0672 
_refine_ls_R_factor_gt            0.0557 
_refine_ls_wR_factor_ref          0.1611 
_refine_ls_wR_factor_gt           0.1547 
_refine_ls_goodness_of_fit_ref    1.170 
_refine_ls_restrained_S_all       1.171 
_refine_ls_shift/su_max           0.000 
_refine_ls_shift/su_mean          0.000 
 
loop_ 
 _atom_site_label 
 _atom_site_type_symbol 
 _atom_site_fract_x 
 _atom_site_fract_y 
 _atom_site_fract_z 
 _atom_site_U_iso_or_equiv 
 _atom_site_adp_type 
 _atom_site_occupancy 
 _atom_site_symmetry_multiplicity 
 _atom_site_calc_flag 
 _atom_site_refinement_flags 
 _atom_site_disorder_assembly 
 _atom_site_disorder_group 
C1 C 1.3408(11) 0.3004(6) 0.2742(3) 0.0332(14) Uani 1 1 d . . . 
C2 C 1.1412(11) 0.2866(6) 0.2266(3) 0.0331(14) Uani 1 1 d . . . 
C3 C 0.8147(11) 0.3459(6) 0.1589(3) 0.0328(14) Uani 1 1 d . . . 
C4 C 0.5996(13) 0.4078(7) 0.1185(4) 0.0416(16) Uani 1 1 d . . . 
H4 H 0.5264 0.4972 0.1154 0.050 Uiso 1 1 calc R . . 
C5 C 0.4981(14) 0.3328(8) 0.0831(4) 0.0512(19) Uani 1 1 d . . . 
H5 H 0.3554 0.3725 0.0553 0.061 Uiso 1 1 calc R . . 
C6 C 0.6057(14) 0.1984(8) 0.0884(4) 0.0522(19) Uani 1 1 d . . . 
H6 H 0.5312 0.1504 0.0641 0.063 Uiso 1 1 calc R . . 
C7 C 0.8173(14) 0.1340(7) 0.1279(4) 0.0456(17) Uani 1 1 d . . . 
H7 H 0.8874 0.0440 0.1314 0.055 Uiso 1 1 calc R . . 
C8 C 0.9204(11) 0.2111(6) 0.1624(3) 0.0317(13) Uani 1 1 d . . . 
C9 C 0.5649(11) 0.8315(5) 0.2267(3) 0.0306(10) Uani 1 1 d . . . 
C10 C 0.7642(11) 0.8349(5) 0.2746(3) 0.0306(10) Uani 1 1 d . . . 
C11 C 0.9695(12) 0.9084(6) 0.3467(3) 0.0362(14) Uani 1 1 d . . . 
C12 C 1.0590(15) 0.9781(8) 0.3879(4) 0.0528(19) Uani 1 1 d . . . 
H12 H 0.9762 1.0633 0.3904 0.063 Uiso 1 1 calc R . . 
C13 C 1.2764(16) 0.9149(9) 0.4251(4) 0.064(2) Uani 1 1 d . . . 
H13 H 1.3421 0.9586 0.4536 0.077 Uiso 1 1 calc R . . 
C14 C 1.4025(14) 0.7869(9) 0.4217(4) 0.055(2) Uani 1 1 d . . . 
H14 H 1.5510 0.7481 0.4471 0.066 Uiso 1 1 calc R . . 
C15 C 1.3104(13) 0.7175(7) 0.3814(4) 0.0451(17) Uani 1 1 d . . . 
H15 H 1.3931 0.6321 0.3792 0.054 Uiso 1 1 calc R . . 
C16 C 1.0885(11) 0.7799(6) 0.3437(3) 0.0320(13) Uani 1 1 d . . . 
C17 C 1.114(2) 0.7606(15) 0.0884(5) 0.106(3) Uani 1 1 d U . . 
H17A H 1.2627 0.7592 0.0610 0.127 Uiso 1 1 calc R . . 
H17B H 1.0551 0.8525 0.0916 0.127 Uiso 1 1 calc R . . 
C18 C 0.933(2) 0.7243(14) 0.0534(5) 0.106(3) Uani 1 1 d U . . 
H18A H 0.8211 0.6842 0.0863 0.158 Uiso 1 1 calc R . . 
H18B H 1.0107 0.6608 0.0283 0.158 Uiso 1 1 calc R . . 
H18C H 0.8405 0.8030 0.0214 0.158 Uiso 1 1 calc R . . 
C19 C 0.803(2) 0.3672(13) 0.4042(5) 0.102(4) Uani 1 1 d U . . 
H19A H 0.6588 0.3763 0.4331 0.122 Uiso 1 1 calc R . . 
H19B H 0.8334 0.2764 0.3982 0.122 Uiso 1 1 calc R . . 
C20 C 1.002(2) 0.3785(16) 0.4404(5) 0.121(4) Uani 1 1 d U . . 
H20A H 1.0637 0.2944 0.4734 0.181 Uiso 1 1 calc R . . 
H20B H 0.9516 0.4478 0.4644 0.181 Uiso 1 1 calc R . . 
H20C H 1.1310 0.4014 0.4088 0.181 Uiso 1 1 calc R . . 
Cd1 Cd 0.96009(8) 0.56762(4) 0.24707(2) 0.0340(2) Uani 1 1 d . . . 
N1 N 0.9573(9) 0.3935(5) 0.2001(3) 0.0306(11) Uani 1 1 d . . . 
N2 N 1.1252(10) 0.1804(5) 0.2066(3) 0.0338(12) Uani 1 1 d . . . 
H2 H 1.2255 0.1036 0.2189 0.041 Uiso 1 1 calc R . . 
N3 N 0.9557(9) 0.7379(4) 0.2984(2) 0.0276(11) Uani 1 1 d . . . 
N4 N 0.7641(10) 0.9422(5) 0.3027(3) 0.0372(12) Uani 1 1 d . . . 
H4A H 0.6558 1.0164 0.2943 0.045 Uiso 1 1 calc R . . 
O1 O 1.3254(7) 0.4140(4) 0.2869(2) 0.0389(11) Uani 1 1 d . . . 
O2 O 1.5031(9) 0.1989(4) 0.2973(3) 0.0449(12) Uani 1 1 d . . . 
O3 O 0.5918(8) 0.7217(4) 0.2081(2) 0.0367(10) Uani 1 1 d . . . 
O4 O 0.3923(8) 0.9285(5) 0.2086(3) 0.0488(12) Uani 1 1 d . . . 
O5 O 1.1789(9) 0.6796(5) 0.1549(2) 0.0505(13) Uani 1 1 d . . . 
H5A H 1.2842 0.6807 0.1853 0.076 Uiso 1 1 d R . . 
O6 O 0.7399(9) 0.4546(5) 0.3399(2) 0.0466(12) Uani 1 1 d . . . 
H6A H 0.6272 0.4348 0.3183 0.070 Uiso 1 1 d R . . 
 
loop_ 
 _atom_site_aniso_label 
 _atom_site_aniso_U_11 
 _atom_site_aniso_U_22 
 _atom_site_aniso_U_33 
 _atom_site_aniso_U_23 
 _atom_site_aniso_U_13 
 _atom_site_aniso_U_12 
C1 0.034(3) 0.027(3) 0.043(4) -0.017(3) -0.001(3) -0.005(3) 
C2 0.038(3) 0.035(3) 0.032(3) -0.023(3) 0.004(3) -0.003(3) 
C3 0.032(3) 0.029(3) 0.040(4) -0.014(3) -0.002(3) -0.005(3) 
C4 0.039(4) 0.037(4) 0.050(4) -0.016(3) -0.005(3) -0.003(3) 
C5 0.042(4) 0.067(5) 0.049(4) -0.020(4) -0.011(3) -0.013(4) 
C6 0.051(4) 0.060(5) 0.060(5) -0.033(4) -0.006(4) -0.021(4) 
C7 0.050(4) 0.042(4) 0.054(4) -0.024(3) 0.000(3) -0.013(3) 
C8 0.029(3) 0.030(3) 0.039(3) -0.013(3) 0.001(3) -0.007(3) 
C9 0.029(2) 0.015(2) 0.047(3) -0.0070(18) -0.0031(19) -0.0009(17) 
C10 0.029(2) 0.015(2) 0.047(3) -0.0070(18) -0.0031(19) -0.0009(17) 
C11 0.035(3) 0.033(3) 0.043(4) -0.015(3) -0.001(3) -0.007(3) 
C12 0.056(5) 0.040(4) 0.070(5) -0.027(4) -0.011(4) -0.010(3) 
C13 0.067(6) 0.070(6) 0.070(6) -0.033(5) -0.012(4) -0.027(5) 
C14 0.038(4) 0.068(5) 0.058(5) -0.010(4) -0.010(3) -0.016(4) 
C15 0.040(4) 0.044(4) 0.046(4) -0.012(3) -0.007(3) 0.003(3) 
C16 0.027(3) 0.029(3) 0.041(4) -0.009(3) -0.002(3) -0.007(3) 
C17 0.093(6) 0.155(8) 0.063(5) 0.004(5) -0.019(4) -0.052(5) 
C18 0.093(6) 0.155(8) 0.063(5) 0.004(5) -0.019(4) -0.052(5) 
C19 0.085(7) 0.129(9) 0.078(7) 0.023(6) -0.035(6) -0.048(7) 
C20 0.104(8) 0.198(12) 0.060(6) 0.003(7) -0.026(6) -0.073(8) 
Cd1 0.0293(3) 0.0239(3) 0.0508(3) -0.0173(2) -0.00493(19) 0.00079(18) 
N1 0.027(3) 0.025(3) 0.042(3) -0.015(2) -0.003(2) -0.001(2) 
N2 0.037(3) 0.015(2) 0.050(3) -0.013(2) -0.005(2) 0.000(2) 
N3 0.028(3) 0.018(2) 0.037(3) -0.010(2) -0.004(2) 0.000(2) 
N4 0.035(3) 0.028(3) 0.050(3) -0.016(2) -0.009(2) -0.001(2) 
O1 0.025(2) 0.037(3) 0.058(3) -0.019(2) -0.0109(19) -0.0013(18) 
O2 0.047(3) 0.015(2) 0.071(3) -0.016(2) -0.020(2) 0.009(2) 
O3 0.034(2) 0.018(2) 0.059(3) -0.018(2) -0.012(2) 0.0038(17) 
O4 0.034(3) 0.041(3) 0.070(3) -0.020(2) -0.017(2) 0.006(2) 
O5 0.049(3) 0.067(3) 0.040(3) -0.011(2) -0.006(2) -0.026(3) 
O6 0.043(3) 0.054(3) 0.045(3) -0.010(2) -0.008(2) -0.020(2) 
 
_geom_special_details 
; 
 All esds (except the esd in the dihedral angle between two l.s. planes) 
 are estimated using the full covariance matrix.  The cell esds are taken 
 into account individually in the estimation of esds in distances, angles 
 and torsion angles; correlations between esds in cell parameters are only 
 used when they are defined by crystal symmetry.  An approximate (isotropic) 
 treatment of cell esds is used for estimating esds involving l.s. planes. 
; 
 
loop_ 
 _geom_bond_atom_site_label_1 
 _geom_bond_atom_site_label_2 
 _geom_bond_distance 
 _geom_bond_site_symmetry_2 
 _geom_bond_publ_flag 
C1 O2 1.235(7) . ? 
C1 O1 1.265(7) . ? 
C1 C2 1.515(8) . ? 
C2 N2 1.291(7) . ? 
C2 N1 1.350(8) . ? 
C3 N1 1.386(8) . ? 
C3 C4 1.389(9) . ? 
C3 C8 1.400(8) . ? 
C4 C5 1.376(10) . ? 
C4 H4 0.9300 . ? 
C5 C6 1.393(11) . ? 
C5 H5 0.9300 . ? 
C6 C7 1.371(10) . ? 
C6 H6 0.9300 . ? 
C7 C8 1.387(9) . ? 
C7 H7 0.9300 . ? 
C8 N2 1.376(8) . ? 
C9 O4 1.226(7) . ? 
C9 O3 1.276(7) . ? 
C9 C10 1.477(8) . ? 
C10 N3 1.309(7) . ? 
C10 N4 1.376(8) . ? 
C11 N4 1.374(8) . ? 
C11 C12 1.383(9) . ? 
C11 C16 1.390(8) . ? 
C12 C13 1.372(11) . ? 
C12 H12 0.9300 . ? 
C13 C14 1.399(11) . ? 
C13 H13 0.9300 . ? 
C14 C15 1.374(10) . ? 
C14 H14 0.9300 . ? 
C15 C16 1.394(9) . ? 
C15 H15 0.9300 . ? 
C16 N3 1.376(7) . ? 
C17 O5 1.388(11) . ? 
C17 C18 1.391(14) . ? 
C17 H17A 0.9700 . ? 
C17 H17B 0.9700 . ? 
C18 H18A 0.9600 . ? 
C18 H18B 0.9600 . ? 
C18 H18C 0.9600 . ? 
C19 C20 1.359(12) . ? 
C19 O6 1.377(10) . ? 
C19 H19A 0.9700 . ? 
C19 H19B 0.9700 . ? 
C20 H20A 0.9600 . ? 
C20 H20B 0.9600 . ? 
C20 H20C 0.9600 . ? 
Cd1 N1 2.254(5) . yes 
Cd1 N3 2.265(5) . yes 
Cd1 O1 2.317(4) . yes 
Cd1 O3 2.327(4) . yes 
Cd1 O5 2.354(5) . yes 
Cd1 O6 2.372(5) . yes 
N2 H2 0.8600 . ? 
N4 H4A 0.8600 . ? 
O5 H5A 0.8483 . ? 
O6 H6A 0.8475 . ? 
 
loop_ 
 _geom_angle_atom_site_label_1 
 _geom_angle_atom_site_label_2 
 _geom_angle_atom_site_label_3 
 _geom_angle 
 _geom_angle_site_symmetry_1 
 _geom_angle_site_symmetry_3 
 _geom_angle_publ_flag 
O2 C1 O1 126.1(6) . . ? 
O2 C1 C2 116.7(5) . . ? 
O1 C1 C2 117.1(5) . . ? 
N2 C2 N1 113.6(5) . . ? 
N2 C2 C1 126.7(6) . . ? 
N1 C2 C1 119.6(5) . . ? 
N1 C3 C4 131.5(6) . . ? 
N1 C3 C8 108.9(5) . . ? 
C4 C3 C8 119.7(6) . . ? 
C5 C4 C3 118.0(6) . . ? 
C5 C4 H4 121.0 . . ? 
C3 C4 H4 121.0 . . ? 
C4 C5 C6 121.0(7) . . ? 
C4 C5 H5 119.5 . . ? 
C6 C5 H5 119.5 . . ? 
C7 C6 C5 122.5(7) . . ? 
C7 C6 H6 118.7 . . ? 
C5 C6 H6 118.7 . . ? 
C6 C7 C8 116.0(7) . . ? 
C6 C7 H7 122.0 . . ? 
C8 C7 H7 122.0 . . ? 
N2 C8 C7 131.9(6) . . ? 
N2 C8 C3 105.3(5) . . ? 
C7 C8 C3 122.8(6) . . ? 
O4 C9 O3 125.7(6) . . ? 
O4 C9 C10 120.3(5) . . ? 
O3 C9 C10 114.1(5) . . ? 
N3 C10 N4 110.8(5) . . ? 
N3 C10 C9 126.1(5) . . ? 
N4 C10 C9 123.0(5) . . ? 
N4 C11 C12 131.5(6) . . ? 
N4 C11 C16 106.1(5) . . ? 
C12 C11 C16 122.4(6) . . ? 
C13 C12 C11 116.5(7) . . ? 
C13 C12 H12 121.8 . . ? 
C11 C12 H12 121.8 . . ? 
C12 C13 C14 122.1(7) . . ? 
C12 C13 H13 118.9 . . ? 
C14 C13 H13 118.9 . . ? 
C15 C14 C13 121.0(7) . . ? 
C15 C14 H14 119.5 . . ? 
C13 C14 H14 119.5 . . ? 
C14 C15 C16 117.6(7) . . ? 
C14 C15 H15 121.2 . . ? 
C16 C15 H15 121.2 . . ? 
N3 C16 C11 108.6(5) . . ? 
N3 C16 C15 130.9(6) . . ? 
C11 C16 C15 120.4(6) . . ? 
O5 C17 C18 115.3(10) . . ? 
O5 C17 H17A 108.4 . . ? 
C18 C17 H17A 108.4 . . ? 
O5 C17 H17B 108.4 . . ? 
C18 C17 H17B 108.4 . . ? 
H17A C17 H17B 107.5 . . ? 
C17 C18 H18A 109.5 . . ? 
C17 C18 H18B 109.5 . . ? 
H18A C18 H18B 109.5 . . ? 
C17 C18 H18C 109.5 . . ? 
H18A C18 H18C 109.5 . . ? 
H18B C18 H18C 109.5 . . ? 
C20 C19 O6 119.0(9) . . ? 
C20 C19 H19A 107.6 . . ? 
O6 C19 H19A 107.6 . . ? 
C20 C19 H19B 107.6 . . ? 
O6 C19 H19B 107.6 . . ? 
H19A C19 H19B 107.0 . . ? 
C19 C20 H20A 109.5 . . ? 
C19 C20 H20B 109.5 . . ? 
H20A C20 H20B 109.5 . . ? 
C19 C20 H20C 109.5 . . ? 
H20A C20 H20C 109.5 . . ? 
H20B C20 H20C 109.5 . . ? 
N1 Cd1 N3 177.57(17) . . yes 
N1 Cd1 O1 74.26(16) . . yes 
N3 Cd1 O1 105.53(16) . . yes 
N1 Cd1 O3 105.98(16) . . yes 
N3 Cd1 O3 74.21(15) . . yes 
O1 Cd1 O3 179.45(15) . . yes 
N1 Cd1 O5 93.64(18) . . yes 
N3 Cd1 O5 88.78(18) . . yes 
O1 Cd1 O5 89.37(17) . . yes 
O3 Cd1 O5 91.10(17) . . yes 
N1 Cd1 O6 86.32(18) . . yes 
N3 Cd1 O6 91.26(17) . . yes 
O1 Cd1 O6 90.58(17) . . yes 
O3 Cd1 O6 88.95(17) . . yes 
O5 Cd1 O6 179.94(19) . . yes 
C2 N1 C3 103.9(5) . . ? 
C2 N1 Cd1 112.6(4) . . ? 
C3 N1 Cd1 142.7(4) . . ? 
C2 N2 C8 108.4(5) . . ? 
C2 N2 H2 125.8 . . ? 
C8 N2 H2 125.8 . . ? 
C10 N3 C16 107.4(5) . . ? 
C10 N3 Cd1 109.8(4) . . ? 
C16 N3 Cd1 142.8(4) . . ? 
C11 N4 C10 107.1(5) . . ? 
C11 N4 H4A 126.5 . . ? 
C10 N4 H4A 126.5 . . ? 
C1 O1 Cd1 115.0(4) . . ? 
C9 O3 Cd1 115.3(4) . . ? 
C17 O5 Cd1 134.8(6) . . ? 
C17 O5 H5A 132.4 . . ? 
Cd1 O5 H5A 87.1 . . ? 
C19 O6 Cd1 135.6(5) . . ? 
C19 O6 H6A 113.5 . . ? 
Cd1 O6 H6A 101.7 . . ? 
 
loop_ 
 _geom_torsion_atom_site_label_1 
 _geom_torsion_atom_site_label_2 
 _geom_torsion_atom_site_label_3 
 _geom_torsion_atom_site_label_4 
 _geom_torsion 
 _geom_torsion_site_symmetry_1 
 _geom_torsion_site_symmetry_2 
 _geom_torsion_site_symmetry_3 
 _geom_torsion_site_symmetry_4 
 _geom_torsion_publ_flag 
O2 C1 C2 N2 -1.3(10) . . . . ? 
O1 C1 C2 N2 179.1(6) . . . . ? 
O2 C1 C2 N1 179.4(6) . . . . ? 
O1 C1 C2 N1 -0.2(9) . . . . ? 
N1 C3 C4 C5 -179.6(7) . . . . ? 
C8 C3 C4 C5 0.0(10) . . . . ? 
C3 C4 C5 C6 0.9(11) . . . . ? 
C4 C5 C6 C7 -0.7(12) . . . . ? 
C5 C6 C7 C8 -0.4(11) . . . . ? 
C6 C7 C8 N2 178.8(7) . . . . ? 
C6 C7 C8 C3 1.3(10) . . . . ? 
N1 C3 C8 N2 0.5(7) . . . . ? 
C4 C3 C8 N2 -179.2(6) . . . . ? 
N1 C3 C8 C7 178.5(6) . . . . ? 
C4 C3 C8 C7 -1.1(10) . . . . ? 
O4 C9 C10 N3 179.1(6) . . . . ? 
O3 C9 C10 N3 -0.5(9) . . . . ? 
O4 C9 C10 N4 2.1(10) . . . . ? 
O3 C9 C10 N4 -177.4(6) . . . . ? 
N4 C11 C12 C13 -178.6(7) . . . . ? 
C16 C11 C12 C13 1.4(11) . . . . ? 
C11 C12 C13 C14 0.1(13) . . . . ? 
C12 C13 C14 C15 -1.1(13) . . . . ? 
C13 C14 C15 C16 0.5(12) . . . . ? 
N4 C11 C16 N3 0.1(7) . . . . ? 
C12 C11 C16 N3 -179.9(6) . . . . ? 
N4 C11 C16 C15 178.0(6) . . . . ? 
C12 C11 C16 C15 -2.0(11) . . . . ? 
C14 C15 C16 N3 178.4(7) . . . . ? 
C14 C15 C16 C11 0.9(10) . . . . ? 
N2 C2 N1 C3 -0.4(7) . . . . ? 
C1 C2 N1 C3 179.0(5) . . . . ? 
N2 C2 N1 Cd1 172.2(4) . . . . ? 
C1 C2 N1 Cd1 -8.5(7) . . . . ? 
C4 C3 N1 C2 179.5(7) . . . . ? 
C8 C3 N1 C2 -0.1(7) . . . . ? 
C4 C3 N1 Cd1 10.9(12) . . . . ? 
C8 C3 N1 Cd1 -168.7(5) . . . . ? 
O1 Cd1 N1 C2 9.1(4) . . . . ? 
O3 Cd1 N1 C2 -170.4(4) . . . . ? 
O5 Cd1 N1 C2 97.4(4) . . . . ? 
O6 Cd1 N1 C2 -82.5(4) . . . . ? 
O1 Cd1 N1 C3 177.2(7) . . . . ? 
O3 Cd1 N1 C3 -2.3(7) . . . . ? 
O5 Cd1 N1 C3 -94.5(7) . . . . ? 
O6 Cd1 N1 C3 85.5(7) . . . . ? 
N1 C2 N2 C8 0.7(7) . . . . ? 
C1 C2 N2 C8 -178.6(6) . . . . ? 
C7 C8 N2 C2 -178.5(7) . . . . ? 
C3 C8 N2 C2 -0.7(7) . . . . ? 
N4 C10 N3 C16 0.1(7) . . . . ? 
C9 C10 N3 C16 -177.2(6) . . . . ? 
N4 C10 N3 Cd1 -177.2(4) . . . . ? 
C9 C10 N3 Cd1 5.5(8) . . . . ? 
C11 C16 N3 C10 -0.1(7) . . . . ? 
C15 C16 N3 C10 -177.8(7) . . . . ? 
C11 C16 N3 Cd1 175.7(5) . . . . ? 
C15 C16 N3 Cd1 -2.0(12) . . . . ? 
O1 Cd1 N3 C10 175.1(4) . . . . ? 
O3 Cd1 N3 C10 -5.4(4) . . . . ? 
O5 Cd1 N3 C10 86.1(4) . . . . ? 
O6 Cd1 N3 C10 -94.0(4) . . . . ? 
O1 Cd1 N3 C16 -0.6(7) . . . . ? 
O3 Cd1 N3 C16 178.9(7) . . . . ? 
O5 Cd1 N3 C16 -89.7(7) . . . . ? 
O6 Cd1 N3 C16 90.3(7) . . . . ? 
C12 C11 N4 C10 180.0(8) . . . . ? 
C16 C11 N4 C10 0.0(7) . . . . ? 
N3 C10 N4 C11 0.0(7) . . . . ? 
C9 C10 N4 C11 177.3(6) . . . . ? 
O2 C1 O1 Cd1 -170.9(5) . . . . ? 
C2 C1 O1 Cd1 8.7(7) . . . . ? 
N1 Cd1 O1 C1 -9.8(4) . . . . ? 
N3 Cd1 O1 C1 167.7(4) . . . . ? 
O5 Cd1 O1 C1 -103.8(5) . . . . ? 
O6 Cd1 O1 C1 76.2(5) . . . . ? 
O4 C9 O3 Cd1 175.5(5) . . . . ? 
C10 C9 O3 Cd1 -4.9(7) . . . . ? 
N1 Cd1 O3 C9 -176.7(4) . . . . ? 
N3 Cd1 O3 C9 5.8(4) . . . . ? 
O5 Cd1 O3 C9 -82.6(4) . . . . ? 
O6 Cd1 O3 C9 97.4(4) . . . . ? 
C18 C17 O5 Cd1 -37.1(18) . . . . ? 
N1 Cd1 O5 C17 80.2(10) . . . . ? 
N3 Cd1 O5 C17 -100.1(10) . . . . ? 
O1 Cd1 O5 C17 154.4(10) . . . . ? 
O3 Cd1 O5 C17 -25.9(10) . . . . ? 
C20 C19 O6 Cd1 32.6(19) . . . . ? 
N1 Cd1 O6 C19 94.7(10) . . . . ? 
N3 Cd1 O6 C19 -85.0(10) . . . . ? 
O1 Cd1 O6 C19 20.5(10) . . . . ? 
O3 Cd1 O6 C19 -159.2(10) . . . . ? 

 
loop_ 
 _geom_hbond_atom_site_label_D 
 _geom_hbond_atom_site_label_H 
 _geom_hbond_atom_site_label_A 
 _geom_hbond_distance_DH 
 _geom_hbond_distance_HA 
 _geom_hbond_distance_DA 
 _geom_hbond_angle_DHA 
 _geom_hbond_site_symmetry_A
 _geom_hbond_publ_flag 
N2 H2 O4  0.86 1.94 2.743(6) 155.2 1_645 yes
N4 H4A O2  0.86 1.94 2.761(6) 158.1 1_465 yes
O5 H5A O3  0.85 1.91 2.678(6) 149.8 1_655 yes
O6 H6A O1  0.85 1.85 2.678(6) 164.4 1_455 yes
 
_diffrn_measured_fraction_theta_max    0.969 
_diffrn_reflns_theta_full              25.25 
_diffrn_measured_fraction_theta_full   0.969 
_refine_diff_density_max    0.925 
_refine_diff_density_min   -1.256 
_refine_diff_density_rms    0.118 

_iucr_refine_instructions_details
;
TITL I in P-1
CELL  0.71073    5.4761   10.4770   19.8960    75.310    88.670    78.540
ZERR 2           0.0011    0.0020    0.0040     0.030     0.030     0.030
LATT 1
SFAC C  H  Cd N  O  
UNIT 40  44  2  8  12  
OMIT -3 50.5
L.S. 20
ACTA 
BOND $H
PLAN -1
conf
size  0.22 0.28 0.35
eqiv  $4  x-1, y, z
htab  o6 o1_$4
eqiv  $3  x+1, y, z
htab  o5 o3_$3
eqiv  $2  x-1, y+1, z
htab  n4 o2_$2
eqiv  $1  x+1, y-1, z
htab  n2 o4_$1
eadp C9 C10
eadp C17 C18
FREE Cd1  H5A  
SIMU 0.01 0.02 3.8 C17 C18 C19 C20
WGHT   0.091000   0.815211 
FVAR 0.319920 
temp 25
C1     1   1.340843   0.300356   0.274240  11.000000   0.033900 = 
           0.026560   0.043350  -0.017380  -0.000550  -0.004880
C2     1   1.141165   0.286622   0.226585  11.000000   0.037680 = 
           0.035450   0.031770  -0.022560   0.004050  -0.002790
C3     1   0.814658   0.345900   0.158864  11.000000   0.032490 = 
           0.028680   0.039910  -0.014180  -0.001640  -0.005050
C4     1   0.599599   0.407766   0.118484  11.000000   0.039140 = 
           0.037140   0.049720  -0.015910  -0.005230  -0.003430
AFIX 43
H4     2   0.526410   0.497170   0.115448  11.000000  -1.200000
AFIX 0
C5     1   0.498108   0.332827   0.083116  11.000000   0.041510 = 
           0.066790   0.049500  -0.019890  -0.010730  -0.012820
AFIX 43
H5     2   0.355428   0.372544   0.055251  11.000000  -1.200000
AFIX 0
C6     1   0.605711   0.198367   0.088385  11.000000   0.050640 = 
           0.059840   0.060220  -0.032680  -0.005970  -0.020810
AFIX 43
H6     2   0.531154   0.150444   0.064140  11.000000  -1.200000
AFIX 0
C7     1   0.817252   0.134008   0.127934  11.000000   0.049760 = 
           0.041510   0.053840  -0.023920   0.000040  -0.013050
AFIX 43
H7     2   0.887397   0.044045   0.131429  11.000000  -1.200000
AFIX 0
C8     1   0.920401   0.211143   0.162428  11.000000   0.028710 = 
           0.030200   0.038750  -0.012730   0.000610  -0.006880
C9     1   0.564874   0.831519   0.226738  11.000000   0.028910 = 
           0.014540   0.046700  -0.007010  -0.003110  -0.000880
C10    1   0.764216   0.834925   0.274592  11.000000   0.028910 = 
           0.014540   0.046700  -0.007010  -0.003110  -0.000880
C11    1   0.969454   0.908407   0.346679  11.000000   0.034950 = 
           0.032990   0.043480  -0.014600  -0.000760  -0.006520
C12    1   1.058979   0.978113   0.387945  11.000000   0.055880 = 
           0.040250   0.070450  -0.027470  -0.011490  -0.009790
AFIX 43
H12    2   0.976171   1.063328   0.390362  11.000000  -1.200000
AFIX 0
C13    1   1.276440   0.914904   0.425138  11.000000   0.067290 = 
           0.070240   0.069940  -0.033050  -0.011880  -0.026510
AFIX 43
H13    2   1.342127   0.958606   0.453556  11.000000  -1.200000
AFIX 0
C14    1   1.402544   0.786869   0.421699  11.000000   0.038260 = 
           0.067640   0.058490  -0.010310  -0.010460  -0.016080
AFIX 43
H14    2   1.550973   0.748129   0.447109  11.000000  -1.200000
AFIX 0
C15    1   1.310435   0.717508   0.381356  11.000000   0.040390 = 
           0.044360   0.046130  -0.011510  -0.007330   0.002640
AFIX 43
H15    2   1.393089   0.632080   0.379247  11.000000  -1.200000
AFIX 0
C16    1   1.088521   0.779860   0.343690  11.000000   0.026950 = 
           0.028860   0.040870  -0.009310  -0.002020  -0.006560
C17    1   1.114014   0.760585   0.088447  11.000000   0.093080 = 
           0.155420   0.063320   0.004370  -0.018990  -0.052080
AFIX 23
H17A   2   1.262729   0.759237   0.060972  11.000000  -1.200000
H17B   2   1.055071   0.852451   0.091615  11.000000  -1.200000
AFIX 0
C18    1   0.932525   0.724338   0.053396  11.000000   0.093080 = 
           0.155420   0.063320   0.004370  -0.018990  -0.052080
AFIX 137
H18A   2   0.821119   0.684155   0.086294  11.000000  -1.500000
H18B   2   1.010742   0.660844   0.028262  11.000000  -1.500000
H18C   2   0.840455   0.802997   0.021442  11.000000  -1.500000
AFIX 0
C19    1   0.803137   0.367154   0.404229  11.000000   0.084520 = 
           0.128580   0.077560   0.022950  -0.034900  -0.047730
AFIX 23
H19A   2   0.658798   0.376250   0.433116  11.000000  -1.200000
H19B   2   0.833450   0.276371   0.398193  11.000000  -1.200000
AFIX 0
C20    1   1.001961   0.378510   0.440374  11.000000   0.103690 = 
           0.198450   0.060050   0.003090  -0.026110  -0.072800
AFIX 137
H20A   2   1.063690   0.294393   0.473438  11.000000  -1.500000
H20B   2   0.951646   0.447759   0.464418  11.000000  -1.500000
H20C   2   1.130955   0.401398   0.408792  11.000000  -1.500000
AFIX 0
Cd1    3   0.960094   0.567624   0.247068  11.000000   0.029300 = 
           0.023910   0.050820  -0.017330  -0.004930   0.000790
N1     4   0.957316   0.393473   0.200066  11.000000   0.026900 = 
           0.025020   0.042330  -0.015360  -0.002550  -0.001470
N2     4   1.125228   0.180446   0.206635  11.000000   0.036790 = 
           0.015310   0.050430  -0.013400  -0.005470  -0.000350
AFIX 43
H2     2   1.225497   0.103639   0.218881  11.000000  -1.200000
AFIX 0
N3     4   0.955665   0.737867   0.298389  11.000000   0.028120 = 
           0.017840   0.036870  -0.010130  -0.004350  -0.000080
N4     4   0.764063   0.942211   0.302678  11.000000   0.034950 = 
           0.028100   0.050110  -0.015870  -0.009220  -0.000930
AFIX 43
H4A    2   0.655789   1.016429   0.294269  11.000000  -1.200000
AFIX 0
O1     5   1.325364   0.413997   0.286896  11.000000   0.024660 = 
           0.036530   0.058060  -0.019260  -0.010940  -0.001290
O2     5   1.503120   0.198945   0.297346  11.000000   0.046780 = 
           0.014590   0.070600  -0.015720  -0.019920   0.009170
O3     5   0.591826   0.721684   0.208137  11.000000   0.034310 = 
           0.017760   0.059350  -0.018170  -0.012270   0.003790
O4     5   0.392335   0.928507   0.208600  11.000000   0.034470 = 
           0.040800   0.069640  -0.019960  -0.017200   0.006060
O5     5   1.178929   0.679607   0.154879  11.000000   0.048810 = 
           0.067480   0.040410  -0.011420  -0.006410  -0.025580
AFIX 3
H5A    2   1.284159   0.680686   0.185254  11.000000  -1.500000
AFIX 0
O6     5   0.739901   0.454605   0.339943  11.000000   0.043250 = 
           0.054120   0.045500  -0.009860  -0.008160  -0.019650
AFIX 3
H6A    2   0.627179   0.434811   0.318287  11.000000  -1.500000
AFIX 
HKLF 4 1  1.0000  0.0000  0.0000  0.0000  1.0000  0.0000  0.0000  0.0000  1.0000
END 
Q1     1   1.093800   0.363800   0.251500  11.000000   0.050000 0.920000
HKLF 4 1  1.0000  0.0000  0.0000  0.0000  1.0000  0.0000  0.0000  0.0000  1.0000
REM  csl20101210 in P-1
REM R1=  0.0557 for   3228 Fo > 4sig(Fo)  and  0.0672 for all   3804 data
REM    270 parameters refined using     12 restraints

;

#============================================================================ 

data_II 
 
_audit_creation_method            SHELXL-97 
_chemical_name_systematic 
; 
<i>trans</i>-bis(1<i>H</i>-benzimidazole-\k<i>N</i>^3^)bis(1<i>H</i>-
benzimidazole-2-carboxylato-\k^2^<i>N</i>^3^,<i>O</i>)nickel(II)
;
 _chemical_formula_iupac 
'[Ni (C8 H5 N2 O2)2 (C7 H6 N2)2]'
_chemical_name_common             ? 
_chemical_melting_point           ? 
_chemical_formula_moiety        'C30 H22 N8 Ni O4' 
_chemical_formula_sum 
 'C30 H22 N8 Ni O4' 
_chemical_formula_weight          617.27 
 
loop_ 
 _atom_type_symbol 
 _atom_type_description 
 _atom_type_scat_dispersion_real 
 _atom_type_scat_dispersion_imag 
 _atom_type_scat_source 
 'C'  'C'   0.0033   0.0016 
 'International Tables Vol C Tables 4.2.6.8 and 6.1.1.4' 
 'H'  'H'   0.0000   0.0000 
 'International Tables Vol C Tables 4.2.6.8 and 6.1.1.4' 
 'N'  'N'   0.0061   0.0033 
 'International Tables Vol C Tables 4.2.6.8 and 6.1.1.4' 
 'O'  'O'   0.0106   0.0060 
 'International Tables Vol C Tables 4.2.6.8 and 6.1.1.4' 
 'Ni'  'Ni'   0.3393   1.1124 
 'International Tables Vol C Tables 4.2.6.8 and 6.1.1.4' 
 
_symmetry_cell_setting            monoclinic
_symmetry_space_group_name_H-M    'P 21/c'
_symmetry_space_group_name_Hall    '-P 2ybc'
 
loop_ 
 _symmetry_equiv_pos_as_xyz 
 'x, y, z' 
 '-x, y+1/2, -z+1/2' 
 '-x, -y, -z' 
 'x, -y-1/2, z-1/2' 
 
_cell_length_a                    10.321(2) 
_cell_length_b                    12.923(3) 
_cell_length_c                    11.495(2) 
_cell_angle_alpha                 90.00 
_cell_angle_beta                  112.21(3) 
_cell_angle_gamma                 90.00 
_cell_volume                      1419.5(5) 
_cell_formula_units_Z             2 
_cell_measurement_temperature     298(2) 
_cell_measurement_reflns_used     3310 
_cell_measurement_theta_min       2.13 
_cell_measurement_theta_max       28.07  
 
_exptl_crystal_description        block 
_exptl_crystal_colour             pale-purple 
_exptl_crystal_size_max           0.42 
_exptl_crystal_size_mid           0.35 
_exptl_crystal_size_min           0.26 
_exptl_crystal_density_meas       ? 
_exptl_crystal_density_diffrn     1.444 
_exptl_crystal_density_method     'not measured' 
_exptl_crystal_F_000              636 
_exptl_absorpt_coefficient_mu     0.735 
_exptl_absorpt_correction_type    multi-scan 
_exptl_absorpt_correction_T_min   0.7477 
_exptl_absorpt_correction_T_max   0.8319 
_exptl_absorpt_process_details    '(SADABS; Bruker, 2002)'
 
_exptl_special_details 
; 
; 
 
_diffrn_ambient_temperature       298(2) 
_diffrn_radiation_wavelength      0.71073 
_diffrn_radiation_type            MoK\a 
_diffrn_radiation_source          'fine-focus sealed tube' 
_diffrn_radiation_monochromator   graphite 
_diffrn_measurement_device_type   'Bruker SMART APEXII CCD area-detector' 
_diffrn_measurement_method        '\f and \w'
_diffrn_detector_area_resol_mean  ? 
_diffrn_standards_number          ? 
_diffrn_standards_interval_count  ? 
_diffrn_standards_interval_time   ? 
_diffrn_standards_decay_%         ? 
_diffrn_reflns_number             7496 
_diffrn_reflns_av_R_equivalents   0.0223 
_diffrn_reflns_av_sigmaI/netI     0.0261 
_diffrn_reflns_limit_h_min        -12 
_diffrn_reflns_limit_h_max        12 
_diffrn_reflns_limit_k_min        -15 
_diffrn_reflns_limit_k_max        15 
_diffrn_reflns_limit_l_min        -14 
_diffrn_reflns_limit_l_max        8 
_diffrn_reflns_theta_min          2.13 
_diffrn_reflns_theta_max          26.00 
_reflns_number_total              2787 
_reflns_number_gt                 2374 
_reflns_threshold_expression      I>2\s(I) 
 
_computing_data_collection         'APEX2 (Bruker, 2004)'  
_computing_cell_refinement         'SAINT (Bruker, 2004)'  
_computing_data_reduction          'SAINT (Bruker, 2004)'  
_computing_structure_solution      'SHELXS97 (Sheldrick, 2008)' 
_computing_structure_refinement    'SHELXL97 (Sheldrick, 2008)' 
_computing_molecular_graphics      'XP in SHELXTL (Bruker, 2004)'   
_computing_publication_material    'SHELXL97 (Sheldrick, 2008)' 
 
_refine_special_details 
; 
 Refinement of F^2^ against ALL reflections.  The weighted R-factor wR and 
 goodness of fit S are based on F^2^, conventional R-factors R are based 
 on F, with F set to zero for negative F^2^. The threshold expression of 
 F^2^ > 2sigma(F^2^) is used only for calculating R-factors(gt) etc. and is 
 not relevant to the choice of reflections for refinement.  R-factors based 
 on F^2^ are statistically about twice as large as those based on F, and R- 
 factors based on ALL data will be even larger. 
; 
 
_refine_ls_structure_factor_coef  Fsqd  
_refine_ls_matrix_type            full 
_refine_ls_weighting_scheme       calc  
_refine_ls_weighting_details 
 'calc w=1/[\s^2^(Fo^2^)+(0.0465P)^2^+0.7528P] where P=(Fo^2^+2Fc^2^)/3' 
_atom_sites_solution_primary      direct 
_atom_sites_solution_secondary    difmap 
_atom_sites_solution_hydrogens    geom 
_refine_ls_hydrogen_treatment     constr 
_refine_ls_extinction_method      none 
_refine_ls_extinction_coef        ? 
_refine_ls_number_reflns          2787 
_refine_ls_number_parameters      184 
_refine_ls_number_restraints      6 
_refine_ls_R_factor_all           0.0412 
_refine_ls_R_factor_gt            0.0349 
_refine_ls_wR_factor_ref          0.0963 
_refine_ls_wR_factor_gt           0.0917 
_refine_ls_goodness_of_fit_ref    1.088 
_refine_ls_restrained_S_all       1.087 
_refine_ls_shift/su_max           0.000 
_refine_ls_shift/su_mean          0.000 
 
loop_ 
 _atom_site_label 
 _atom_site_type_symbol 
 _atom_site_fract_x 
 _atom_site_fract_y 
 _atom_site_fract_z 
 _atom_site_U_iso_or_equiv 
 _atom_site_adp_type 
 _atom_site_occupancy 
 _atom_site_symmetry_multiplicity 
 _atom_site_calc_flag 
 _atom_site_refinement_flags 
 _atom_site_disorder_assembly 
 _atom_site_disorder_group 
C1 C 0.7526(2) -0.04615(16) 0.04493(19) 0.0273(4) Uani 1 1 d . . . 
C2 C 0.7228(2) 0.04756(16) -0.03733(19) 0.0271(4) Uani 1 1 d . . . 
C3 C 0.6268(2) 0.18568(17) -0.1464(2) 0.0327(5) Uani 1 1 d . . . 
C4 C 0.5430(3) 0.2680(2) -0.2108(2) 0.0458(6) Uani 1 1 d . . . 
H4 H 0.4508 0.2746 -0.2172 0.055 Uiso 1 1 calc R . . 
C5 C 0.6027(3) 0.3386(2) -0.2643(2) 0.0513(7) Uani 1 1 d . . . 
H5 H 0.5493 0.3941 -0.3086 0.062 Uiso 1 1 calc R . . 
C6 C 0.7409(3) 0.3298(2) -0.2542(2) 0.0479(6) Uani 1 1 d . . . 
H6 H 0.7775 0.3797 -0.2915 0.057 Uiso 1 1 calc R . . 
C7 C 0.8247(3) 0.24921(19) -0.1907(2) 0.0405(5) Uani 1 1 d . . . 
H7 H 0.9172 0.2439 -0.1836 0.049 Uiso 1 1 calc R . . 
C8 C 0.7652(2) 0.17588(16) -0.13728(19) 0.0306(4) Uani 1 1 d . . . 
C9 C 1.1027(3) 0.19649(18) 0.1560(2) 0.0436(6) Uani 1 1 d . . . 
H9 H 1.0744 0.2348 0.0820 0.052 Uiso 1 1 calc R . . 
C10 C 1.1328(3) 0.07230(19) 0.2859(2) 0.0435(6) Uani 1 1 d . . . 
C11 C 1.1320(5) -0.0205(2) 0.3448(3) 0.0761(11) Uani 1 1 d . . . 
H11 H 1.0867 -0.0785 0.2999 0.091 Uiso 1 1 calc R . . 
C12 C 1.2015(5) -0.0230(3) 0.4731(3) 0.1030(9) Uani 1 1 d U . . 
H12 H 1.2062 -0.0851 0.5155 0.124 Uiso 1 1 calc R . . 
C13 C 1.2650(5) 0.0644(3) 0.5413(3) 0.1030(9) Uani 1 1 d U . . 
H13 H 1.3070 0.0600 0.6284 0.124 Uiso 1 1 calc R . . 
C14 C 1.2677(5) 0.1568(3) 0.4843(3) 0.1030(9) Uani 1 1 d . . . 
H14 H 1.3137 0.2145 0.5296 0.124 Uiso 1 1 calc R . . 
C15 C 1.1979(3) 0.1594(2) 0.3554(2) 0.0476(6) Uani 1 1 d . . . 
N1 N 0.82193(17) 0.08804(13) -0.06899(16) 0.0284(4) Uani 1 1 d . . . 
N2 N 0.60315(17) 0.10275(14) -0.08198(17) 0.0322(4) Uani 1 1 d . . . 
H2 H 0.5265 0.0888 -0.0720 0.039 Uiso 1 1 calc R . . 
N3 N 1.07517(18) 0.09767(14) 0.15964(17) 0.0344(4) Uani 1 1 d . . . 
N4 N 1.1758(2) 0.23675(16) 0.2697(2) 0.0471(5) Uani 1 1 d . . . 
H4A H 1.2035 0.2998 0.2854 0.057 Uiso 1 1 calc R . . 
Ni1 Ni 1.0000 0.0000 0.0000 0.02517(13) Uani 1 2 d S . . 
O1 O 0.87434(14) -0.08174(11) 0.07459(14) 0.0315(3) Uani 1 1 d . . . 
O2 O 0.66174(15) -0.08014(12) 0.08110(16) 0.0405(4) Uani 1 1 d . . . 
 
loop_ 
 _atom_site_aniso_label 
 _atom_site_aniso_U_11 
 _atom_site_aniso_U_22 
 _atom_site_aniso_U_33 
 _atom_site_aniso_U_23 
 _atom_site_aniso_U_13 
 _atom_site_aniso_U_12 
C1 0.0256(10) 0.0271(10) 0.0298(10) -0.0005(8) 0.0111(8) -0.0018(8) 
C2 0.0222(9) 0.0286(10) 0.0310(10) 0.0011(9) 0.0107(8) 0.0017(8) 
C3 0.0293(11) 0.0333(11) 0.0334(11) 0.0026(9) 0.0094(9) 0.0019(9) 
C4 0.0353(12) 0.0476(14) 0.0478(14) 0.0084(12) 0.0081(10) 0.0117(11) 
C5 0.0567(16) 0.0413(14) 0.0477(15) 0.0159(12) 0.0105(12) 0.0137(12) 
C6 0.0577(16) 0.0403(13) 0.0453(14) 0.0153(11) 0.0192(12) 0.0003(12) 
C7 0.0403(12) 0.0405(13) 0.0445(13) 0.0096(11) 0.0203(11) 0.0005(10) 
C8 0.0295(10) 0.0310(11) 0.0306(10) 0.0023(9) 0.0105(9) 0.0020(8) 
C9 0.0521(14) 0.0347(12) 0.0431(13) -0.0041(11) 0.0169(11) -0.0022(11) 
C10 0.0510(14) 0.0396(13) 0.0373(13) -0.0039(10) 0.0137(11) 0.0006(11) 
C11 0.125(3) 0.0495(17) 0.0438(17) -0.0003(13) 0.0200(18) -0.0114(19) 
C12 0.166(2) 0.0707(13) 0.0426(11) -0.0036(9) 0.0051(13) 0.0016(15) 
C13 0.166(2) 0.0707(13) 0.0426(11) -0.0036(9) 0.0051(13) 0.0016(15) 
C14 0.166(2) 0.0707(13) 0.0426(11) -0.0036(9) 0.0051(13) 0.0016(15) 
C15 0.0519(15) 0.0445(14) 0.0427(14) -0.0105(11) 0.0137(12) 0.0036(12) 
N1 0.0246(8) 0.0288(9) 0.0336(9) 0.0048(7) 0.0130(7) 0.0023(7) 
N2 0.0212(8) 0.0361(10) 0.0403(10) 0.0053(8) 0.0126(7) 0.0023(7) 
N3 0.0344(10) 0.0326(10) 0.0365(10) -0.0029(8) 0.0138(8) -0.0014(8) 
N4 0.0550(13) 0.0348(11) 0.0529(13) -0.0128(10) 0.0219(10) -0.0090(10) 
Ni1 0.02038(19) 0.0257(2) 0.0310(2) 0.00160(15) 0.01162(15) 0.00080(14) 
O1 0.0240(7) 0.0309(8) 0.0417(8) 0.0074(6) 0.0146(6) 0.0025(6) 
O2 0.0311(8) 0.0403(9) 0.0572(10) 0.0132(8) 0.0246(8) 0.0020(7) 
 
_geom_special_details 
; 
 All esds (except the esd in the dihedral angle between two l.s. planes) 
 are estimated using the full covariance matrix.  The cell esds are taken 
 into account individually in the estimation of esds in distances, angles 
 and torsion angles; correlations between esds in cell parameters are only 
 used when they are defined by crystal symmetry.  An approximate (isotropic) 
 treatment of cell esds is used for estimating esds involving l.s. planes. 
; 
 
loop_ 
 _geom_bond_atom_site_label_1 
 _geom_bond_atom_site_label_2 
 _geom_bond_distance 
 _geom_bond_site_symmetry_2 
 _geom_bond_publ_flag 
C1 O2 1.241(2) . ? 
C1 O1 1.258(2) . ? 
C1 C2 1.495(3) . ? 
C2 N1 1.317(3) . ? 
C2 N2 1.349(3) . ? 
C3 N2 1.376(3) . ? 
C3 C4 1.394(3) . ? 
C3 C8 1.398(3) . ? 
C4 C5 1.370(4) . ? 
C4 H4 0.9300 . ? 
C5 C6 1.392(4) . ? 
C5 H5 0.9300 . ? 
C6 C7 1.374(3) . ? 
C6 H6 0.9300 . ? 
C7 C8 1.391(3) . ? 
C7 H7 0.9300 . ? 
C8 N1 1.378(3) . ? 
C9 N3 1.312(3) . ? 
C9 N4 1.342(3) . ? 
C9 H9 0.9300 . ? 
C10 C11 1.379(4) . ? 
C10 N3 1.384(3) . ? 
C10 C15 1.396(3) . ? 
C11 C12 1.375(5) . ? 
C11 H11 0.9300 . ? 
C12 C13 1.391(5) . ? 
C12 H12 0.9300 . ? 
C13 C14 1.367(5) . ? 
C13 H13 0.9300 . ? 
C14 C15 1.382(4) . ? 
C14 H14 0.9300 . ? 
C15 N4 1.361(3) . ? 
N1 Ni1 2.0492(17) . yes 
N2 H2 0.8600 . ? 
N3 Ni1 2.1181(18) . yes 
N4 H4A 0.8600 . ? 
Ni1 N1 2.0492(17) 3_755 yes 
Ni1 O1 2.0915(14) 3_755 yes 
Ni1 O1 2.0915(14) . yes 
Ni1 N3 2.1181(18) 3_755 yes 
 
loop_ 
 _geom_angle_atom_site_label_1 
 _geom_angle_atom_site_label_2 
 _geom_angle_atom_site_label_3 
 _geom_angle 
 _geom_angle_site_symmetry_1 
 _geom_angle_site_symmetry_3 
 _geom_angle_publ_flag 
O2 C1 O1 125.71(19) . . ? 
O2 C1 C2 119.85(17) . . ? 
O1 C1 C2 114.40(17) . . ? 
N1 C2 N2 112.34(18) . . ? 
N1 C2 C1 120.07(17) . . ? 
N2 C2 C1 127.51(17) . . ? 
N2 C3 C4 132.8(2) . . ? 
N2 C3 C8 105.86(18) . . ? 
C4 C3 C8 121.4(2) . . ? 
C5 C4 C3 116.9(2) . . ? 
C5 C4 H4 121.5 . . ? 
C3 C4 H4 121.5 . . ? 
C4 C5 C6 121.9(2) . . ? 
C4 C5 H5 119.0 . . ? 
C6 C5 H5 119.0 . . ? 
C7 C6 C5 121.7(2) . . ? 
C7 C6 H6 119.1 . . ? 
C5 C6 H6 119.1 . . ? 
C6 C7 C8 117.2(2) . . ? 
C6 C7 H7 121.4 . . ? 
C8 C7 H7 121.4 . . ? 
N1 C8 C7 130.5(2) . . ? 
N1 C8 C3 108.61(18) . . ? 
C7 C8 C3 120.9(2) . . ? 
N3 C9 N4 113.2(2) . . ? 
N3 C9 H9 123.4 . . ? 
N4 C9 H9 123.4 . . ? 
C11 C10 N3 129.9(2) . . ? 
C11 C10 C15 120.7(3) . . ? 
N3 C10 C15 109.4(2) . . ? 
C12 C11 C10 116.8(3) . . ? 
C12 C11 H11 121.6 . . ? 
C10 C11 H11 121.6 . . ? 
C11 C12 C13 121.9(4) . . ? 
C11 C12 H12 119.0 . . ? 
C13 C12 H12 119.0 . . ? 
C14 C13 C12 122.0(3) . . ? 
C14 C13 H13 119.0 . . ? 
C12 C13 H13 119.0 . . ? 
C13 C14 C15 116.0(3) . . ? 
C13 C14 H14 122.0 . . ? 
C15 C14 H14 122.0 . . ? 
N4 C15 C14 132.1(3) . . ? 
N4 C15 C10 105.4(2) . . ? 
C14 C15 C10 122.5(3) . . ? 
C2 N1 C8 106.13(16) . . ? 
C2 N1 Ni1 110.44(13) . . ? 
C8 N1 Ni1 143.43(14) . . ? 
C2 N2 C3 107.05(17) . . ? 
C2 N2 H2 126.5 . . ? 
C3 N2 H2 126.5 . . ? 
C9 N3 C10 104.6(2) . . ? 
C9 N3 Ni1 124.40(17) . . ? 
C10 N3 Ni1 129.71(15) . . ? 
C9 N4 C15 107.4(2) . . ? 
C9 N4 H4A 126.3 . . ? 
C15 N4 H4A 126.3 . . ? 
N1 Ni1 N1 180 . 3_755 yes 
N1 Ni1 O1 99.52(6) . 3_755 yes 
N1 Ni1 O1 80.48(6) 3_755 3_755 yes 
N1 Ni1 O1 80.48(6) . . yes 
N1 Ni1 O1 99.52(6) 3_755 . yes 
O1 Ni1 O1 180 3_755 . yes
N1 Ni1 N3 89.17(7) . . yes 
N1 Ni1 N3 90.83(7) 3_755 . yes 
O1 Ni1 N3 88.48(7) 3_755 . yes 
O1 Ni1 N3 91.52(7) . . yes 
N1 Ni1 N3 90.83(7) . 3_755 yes 
N1 Ni1 N3 89.17(7) 3_755 3_755 yes 
O1 Ni1 N3 91.52(7) 3_755 3_755 yes 
O1 Ni1 N3 88.48(7) . 3_755 yes 
N3 Ni1 N3 180 . 3_755 yes 
C1 O1 Ni1 114.51(13) . . ? 
 
loop_ 
 _geom_torsion_atom_site_label_1 
 _geom_torsion_atom_site_label_2 
 _geom_torsion_atom_site_label_3 
 _geom_torsion_atom_site_label_4 
 _geom_torsion 
 _geom_torsion_site_symmetry_1 
 _geom_torsion_site_symmetry_2 
 _geom_torsion_site_symmetry_3 
 _geom_torsion_site_symmetry_4 
 _geom_torsion_publ_flag 
O2 C1 C2 N1 175.41(19) . . . . ? 
O1 C1 C2 N1 -2.4(3) . . . . ? 
O2 C1 C2 N2 -1.2(3) . . . . ? 
O1 C1 C2 N2 -178.92(19) . . . . ? 
N2 C3 C4 C5 179.4(2) . . . . ? 
C8 C3 C4 C5 -0.1(4) . . . . ? 
C3 C4 C5 C6 -0.6(4) . . . . ? 
C4 C5 C6 C7 0.4(4) . . . . ? 
C5 C6 C7 C8 0.5(4) . . . . ? 
C6 C7 C8 N1 -179.9(2) . . . . ? 
C6 C7 C8 C3 -1.2(3) . . . . ? 
N2 C3 C8 N1 0.4(2) . . . . ? 
C4 C3 C8 N1 -180.0(2) . . . . ? 
N2 C3 C8 C7 -178.6(2) . . . . ? 
C4 C3 C8 C7 1.1(3) . . . . ? 
N3 C10 C11 C12 178.6(3) . . . . ? 
C15 C10 C11 C12 -2.0(6) . . . . ? 
C10 C11 C12 C13 2.5(7) . . . . ? 
C11 C12 C13 C14 -3.1(8) . . . . ? 
C12 C13 C14 C15 2.9(7) . . . . ? 
C13 C14 C15 N4 178.1(4) . . . . ? 
C13 C14 C15 C10 -2.4(6) . . . . ? 
C11 C10 C15 N4 -178.3(3) . . . . ? 
N3 C10 C15 N4 1.2(3) . . . . ? 
C11 C10 C15 C14 2.0(5) . . . . ? 
N3 C10 C15 C14 -178.4(3) . . . . ? 
N2 C2 N1 C8 0.8(2) . . . . ? 
C1 C2 N1 C8 -176.29(18) . . . . ? 
N2 C2 N1 Ni1 -179.43(14) . . . . ? 
C1 C2 N1 Ni1 3.5(2) . . . . ? 
C7 C8 N1 C2 178.2(2) . . . . ? 
C3 C8 N1 C2 -0.7(2) . . . . ? 
C7 C8 N1 Ni1 -1.5(4) . . . . ? 
C3 C8 N1 Ni1 179.63(18) . . . . ? 
N1 C2 N2 C3 -0.6(2) . . . . ? 
C1 C2 N2 C3 176.2(2) . . . . ? 
C4 C3 N2 C2 -179.5(3) . . . . ? 
C8 C3 N2 C2 0.1(2) . . . . ? 
N4 C9 N3 C10 1.1(3) . . . . ? 
N4 C9 N3 Ni1 -166.88(16) . . . . ? 
C11 C10 N3 C9 178.1(3) . . . . ? 
C15 C10 N3 C9 -1.4(3) . . . . ? 
C11 C10 N3 Ni1 -14.8(4) . . . . ? 
C15 C10 N3 Ni1 165.70(16) . . . . ? 
N3 C9 N4 C15 -0.4(3) . . . . ? 
C14 C15 N4 C9 179.1(4) . . . . ? 
C10 C15 N4 C9 -0.5(3) . . . . ? 
C2 N1 Ni1 O1 177.35(14) . . . 3_755 ? 
C8 N1 Ni1 O1 -3.0(2) . . . 3_755 ? 
C2 N1 Ni1 O1 -2.65(14) . . . . ? 
C8 N1 Ni1 O1 177.0(2) . . . . ? 
C2 N1 Ni1 N3 -94.33(15) . . . . ? 
C8 N1 Ni1 N3 85.4(2) . . . . ? 
C2 N1 Ni1 N3 85.67(15) . . . 3_755 ? 
C8 N1 Ni1 N3 -94.6(2) . . . 3_755 ? 
C9 N3 Ni1 N1 -63.25(19) . . . . ? 
C10 N3 Ni1 N1 131.9(2) . . . . ? 
C9 N3 Ni1 N1 116.75(19) . . . 3_755 ? 
C10 N3 Ni1 N1 -48.1(2) . . . 3_755 ? 
C9 N3 Ni1 O1 36.30(19) . . . 3_755 ? 
C10 N3 Ni1 O1 -128.5(2) . . . 3_755 ? 
C9 N3 Ni1 O1 -143.70(19) . . . . ? 
C10 N3 Ni1 O1 51.5(2) . . . . ? 
O2 C1 O1 Ni1 -177.79(18) . . . . ? 
C2 C1 O1 Ni1 -0.2(2) . . . . ? 
N1 Ni1 O1 C1 1.54(14) . . . . ? 
N1 Ni1 O1 C1 -178.46(14) 3_755 . . . ? 
N3 Ni1 O1 C1 90.45(15) . . . . ? 
N3 Ni1 O1 C1 -89.55(15) 3_755 . . . ? 
 
loop_ 
 _geom_hbond_atom_site_label_D 
 _geom_hbond_atom_site_label_H 
 _geom_hbond_atom_site_label_A 
 _geom_hbond_distance_DH 
 _geom_hbond_distance_HA 
 _geom_hbond_distance_DA 
 _geom_hbond_angle_DHA 
 _geom_hbond_site_symmetry_A
 _geom_hbond_publ_flag  
N4 H4A O1  0.86 2.56 3.111(2) 122.7 2_755 yes
N4 H4A O2  0.86 2.25 3.030(3) 150.0 2_755 yes
N2 H2 O2  0.86 1.91 2.753(2) 166.7 3_655 yes
 
_diffrn_measured_fraction_theta_max    0.999 
_diffrn_reflns_theta_full              26.00 
_diffrn_measured_fraction_theta_full   0.999 
_refine_diff_density_max    0.792 
_refine_diff_density_min   -0.475 
_refine_diff_density_rms    0.053 

_iucr_refine_instructions_details
;
TITL II in P2(1)/c
CELL 0.71073  10.3215  12.9234  11.4951  90.000 112.214  90.000
ZERR    2.00   0.0021   0.0026   0.0023   0.000   0.030   0.000
LATT 1
SYMM -X, 0.5+Y, 0.5-Z
SFAC C  H  N  O  Ni 
UNIT 60  44  16  8  2  
OMIT -3 52
L.S. 20
ACTA 
BOND $H
FMAP 2
PLAN -1
htab  n2 O2_$1
htab N4 O2_$2
htab N4 O1_$2
eqiv $1  -x+1, -y, -z
eqiv $2 -x+2, y+1/2, -z+1/2
conf
size 0.26 0.35 0.42
eadp C12 C13 C14
SIMU 0.01 0.02 3.8 C12 C13
WGHT   0.046500   0.752823 
FVAR 0.537040 
temp 25
C1     1   0.752618  -0.046154   0.044927  11.000000   0.025600 = 
           0.027070   0.029770  -0.000490   0.011110  -0.001850
C2     1   0.722824   0.047555  -0.037327  11.000000   0.022220 = 
           0.028650   0.031000   0.001080   0.010720   0.001670
C3     1   0.626821   0.185677  -0.146444  11.000000   0.029300 = 
           0.033330   0.033380   0.002610   0.009360   0.001920
C4     1   0.543007   0.267951  -0.210850  11.000000   0.035260 = 
           0.047620   0.047800   0.008400   0.008070   0.011690
AFIX 43
H4     2   0.450835   0.274570  -0.217249  11.000000  -1.200000
AFIX 0
C5     1   0.602674   0.338607  -0.264285  11.000000   0.056710 = 
           0.041300   0.047740   0.015900   0.010490   0.013700
AFIX 43
H5     2   0.549263   0.394081  -0.308580  11.000000  -1.200000
AFIX 0
C6     1   0.740880   0.329795  -0.254221  11.000000   0.057710 = 
           0.040340   0.045340   0.015320   0.019190   0.000300
AFIX 43
H6     2   0.777488   0.379733  -0.291467  11.000000  -1.200000
AFIX 0
C7     1   0.824666   0.249210  -0.190669  11.000000   0.040320 = 
           0.040520   0.044500   0.009650   0.020300   0.000510
AFIX 43
H7     2   0.917190   0.243915  -0.183645  11.000000  -1.200000
AFIX 0
C8     1   0.765240   0.175882  -0.137280  11.000000   0.029500 = 
           0.031020   0.030600   0.002270   0.010480   0.001970
C9     1   1.102672   0.196488   0.155977  11.000000   0.052090 = 
           0.034710   0.043070  -0.004130   0.016890  -0.002240
AFIX 43
H9     2   1.074355   0.234785   0.082040  11.000000  -1.200000
AFIX 0
C10    1   1.132818   0.072303   0.285878  11.000000   0.051020 = 
           0.039630   0.037320  -0.003950   0.013720   0.000560
C11    1   1.132047  -0.020491   0.344793  11.000000   0.124520 = 
           0.049500   0.043840  -0.000260   0.019990  -0.011430
AFIX 43
H11    2   1.086731  -0.078533   0.299941  11.000000  -1.200000
AFIX 0
C12    1   1.201549  -0.023045   0.473108  11.000000   0.165530 = 
           0.070650   0.042620  -0.003600   0.005060   0.001590
AFIX 43
H12    2   1.206226  -0.085085   0.515507  11.000000  -1.200000
AFIX 0
C13    1   1.265035   0.064439   0.541304  11.000000   0.165530 = 
           0.070650   0.042620  -0.003600   0.005060   0.001590
AFIX 43
H13    2   1.307000   0.059957   0.628373  11.000000  -1.200000
AFIX 0
C14    1   1.267670   0.156822   0.484323  11.000000   0.165530 = 
           0.070650   0.042620  -0.003600   0.005060   0.001590
AFIX 43
H14    2   1.313670   0.214487   0.529610  11.000000  -1.200000
AFIX 0
C15    1   1.197869   0.159375   0.355378  11.000000   0.051900 = 
           0.044490   0.042720  -0.010550   0.013700   0.003640
N1     3   0.821932   0.088038  -0.068986  11.000000   0.024560 = 
           0.028800   0.033640   0.004770   0.012960   0.002260
N2     3   0.603146   0.102754  -0.081979  11.000000   0.021220 = 
           0.036090   0.040290   0.005280   0.012620   0.002290
AFIX 43
H2     2   0.526511   0.088777  -0.072048  11.000000  -1.200000
AFIX 0
N3     3   1.075169   0.097672   0.159643  11.000000   0.034440 = 
           0.032600   0.036460  -0.002870   0.013790  -0.001380
N4     3   1.175776   0.236747   0.269655  11.000000   0.054980 = 
           0.034830   0.052850  -0.012770   0.021910  -0.009050
AFIX 43
H4A    2   1.203534   0.299797   0.285418  11.000000  -1.200000
AFIX 0
Ni1    5   1.000000   0.000000   0.000000  10.500000   0.020380 = 
           0.025740   0.031050   0.001600   0.011620   0.000800
O1     4   0.874336  -0.081737   0.074589  11.000000   0.023950 = 
           0.030930   0.041670   0.007400   0.014640   0.002500
O2     4   0.661736  -0.080142   0.081097  11.000000   0.031100 = 
           0.040290   0.057210   0.013230   0.024630   0.002020
HKLF 4
END 
Q1     1   0.737800   0.002700   0.000700  11.000000   0.050000 0.260000
HKLF 4
REM  csl101011B6Ni in P2(1)/c
REM R1=  0.0349 for   2374 Fo > 4sig(Fo)  and  0.0412 for all   2787 data
REM    184 parameters refined using      6 restraints

;
# End of Crystallographic Information file

