
data_New_Global_Publ_Block
#==============================================================================

# PROCESSING SUMMARY (IUCr Office Use Only)

_journal_date_recd_electronic      2010-11-10
_journal_date_to_coeditor         ?
_journal_date_from_coeditor       ?
_journal_date_accepted     ?
_journal_date_printers_first      ?
_journal_date_printers_final      ?
_journal_date_proofs_out          ?
_journal_date_proofs_in           ?
_journal_coeditor_name            ?
_journal_coeditor_code      SK3395
_journal_coeditor_notes
; ?
;
_journal_paper_category      FM
_journal_techeditor_code      ?
_iucr_compatibility_tag          ACTA95
_journal_techeditor_notes  
;
;
_journal_coden_ASTM               ?
_journal_name_full                ?
_journal_year                     ?
_journal_volume                   ?
_journal_issue                    ?
_journal_page_first               ?
_journal_page_last                ?
_journal_suppl_publ_number        ?
_journal_suppl_publ_pages         ?

#==============================================================================



_publ_section_figure_captions
;
The molecular structure of compound (<b>1</b>), showing the atom-numbering
scheme. Displacement ellipsoids drawn at the 30% probability level. Hydrogen
atoms have been omitted for clarity.

The crystal packing of compound (<b>1</b>), hydrogen bonds have been shown.

The molecular structure of compound (<b>2</b>), showing the atom-numbering
scheme. Displacement ellipsoids drawn at the 30% probability level. Hydrogen
atoms have been omitted for clarity.

The crystal packing of compound (<b>2</b>), hydrogen bonds have been shown.
;
#Added by publCIF



_publ_section_related_literature 
;
For related literature, see: Burke <i>et al.</i> (2004);
Chen <i>et al.</i> (2006);
D'Alessandro, Dinolfo, Hupp, Junk & Keene (2006);
Geldard & Lion (1965);
Hartmann & Vahrenkamp (1995);
Jalilian & Lidin (2010);
Klingele & Brooker (2003);
L\"u <i>et al.</i> (2005);
Lipstman & Goldberg (2010);
Peng <i>et al.</i> (2006);
Schneider <i>et al.</i> (2007);
Yucesan <i>et al.</i> (2005);
Zhai <i>et al.</i> (2006).
;


# Added by publCIF - use a unique identifier for each data block

#==============================================================================


# SUBMISSION DETAILS

_publ_contact_author_name            
'Zhiliang Liu'   # Name of author for correspondence
_publ_contact_author_address             # Address of author for correspondence


;
College of Chemistry and Chemical Engineering, Inner Mongolia University,
Hohhot, 010021, P. R. China
;


_publ_contact_author_email           'cezlliu@imu.edu.cn'
_publ_contact_author_fax             '0086-471-4993409'
_publ_contact_author_phone           '0086-471-4993409'

_publ_contact_letter
;
Please consider this CIF for publication. I certify that this contibution is the
original work of those listed as authors; that it has not been published
before (in any language or medium) and is not being considered for publication
elsewhere; that all authors concur with and are aware of the submission; that
all workers involved in the study are listed as authors or given proper credit
in the acknowledgements; that I have obtained permission for and acknowledged
the source of any excerpts from other copyright works; and that to the best of
my knowledge the paper contains no statements which are libellous, unlawful or
in any way actionable. All coauthors have made significant scientific
contributions to the work reported, including the ideas and their execution,
and share responsibility and accountability for the results.
;
   
_publ_requested_journal              'Acta Cryst. C'
_publ_requested_category             FM   

#==============================================================================

# TITLE AND AUTHOR LIST

_publ_section_title
;
Dinuclear Transition-Metal Complexes:
Bis[\m--3,5--bis(2--pyridyl)--1,2,4--triazole]
bis(methanol--\k<i>O</i>)bis(azido--\k<i>N</i>)cobalt(II) and
Bis[\m--3,5--bis(2--pyridyl)--1,2,4-triazole]
bis(methanol--\k<i>O</i>)bis(azido--\k<i>N</i>)iron(II)
;
_publ_section_title_footnote  # remove if not required
;

;
         
 
# The loop structure below should contain the names and addresses of all 
# authors, in the required order of publication. Repeat as necessary.

# NB if using publCIF, the Author database tool might prove useful
# (see the Tools menu in publCIF)

loop_
_publ_author_name
_publ_author_address
_publ_author_footnote
_publ_author_email
'Ding, Shuai'
;
College of Chemistry and Chemical Engineering, Inner Mongolia University,
Hohhot, 010021, P. R. China
;
.
.
'Ji, Yufei'
;
College of Chemistry and Chemical Engineering, Inner Mongolia University,
Hohhot, 010021, P. R. China
;
.
.
'Liu, Zhiliang'
;
College of Chemistry and Chemical Engineering, Inner Mongolia University,
Hohhot, 010021, P. R. China
;
.
.
'Wang, Rui'
;
College of Chemistry and Chemical Engineering, Inner Mongolia University,
Hohhot, 010021, P. R. China
;
.
.







#==============================================================================

# TEXT

_publ_section_synopsis
.
_publ_section_abstract
;
In the two isomorphous title complexes,
[Co~2~(C~12~H~8~N~5~)~2~(CH~3~OH)~2~(N~3~)~2~], (1), and
[Fe~2~(C~12~H~8~N~5~)~2~(CH~3~OH)~2~(N~3~)~2~], (2), the <i>M</i>^II^ ions
each have a distorted octahedral coordination geometry formed <i>via</i> four
N atoms from two 3,5--bis(2--pyridyl)--1,2,4--triazole ligands, one O atom
from methanol and one N atom from azide. The two-dimensional supramolecular
structures of (1) and (2) are formed <i>via</i> weak hydrogen-bonding
interactions between N atoms from 3,5--bis(2-pyridyl)--1,2,4--triazole ligands
and H atoms from methanol.
;

_publ_section_comment
;
Recently, studies of transition metal coordination compounds and supramolecules
as new hybrid materials based on multifunctional organic ligands have
attracted considerable interest due to potential use in catalysis, magnetism,
electrical conductivity and molecular recognition (L\"u <i>et al.</i>, 2005;
Chen <i>et al.</i>, 2006; D'Alessandro <i>et al.</i>, 2006; Hartmann <i>et
al.</i>, 1995; Burke <i>et al.</i>, 2004). In the case of dinuclear transition
metal complexes, the rational design and the modification of their structures
is still a challenge (Lipstman <i>et al.</i>, 2010; Jalilian <i>et al.</i>,
2010). The presence of additional 2-pyridyl groups in 1,2,4-triazoles enhances
the stability of the resulting complexes due to the chelate effect (Klingele
<i>et al.</i>, 2003). Furthermore, 3,5--bis(2--pyridyl)--1,2,4--triazole
(hereafter abbreviated to Hbpt) is able to act as a bis-bidentate bridging
ligand between metal centers (Yucesan <i>et al.</i>, 2005; Schneider <i>et
al.</i>, 2007; Zhai <i>et al.</i>, 2006). In our laboratory, both Hbpt and
substituent Hpbt have been used to construct polynuclear coordination
compounds. Herein, we report the synthesis and X-ray crystal structures of the
two title dinuclear transition metal compounds,
[Co~2~(bpt)~2~(CH~3~OH)~2~(N~3~)~2~], (1) and
[Fe~2~(bpt)~2~(CH~3~OH)~2~(N~3~)~2~], (2).

Selected geometric parameters for (1) are listed in Table 1. The labeling
scheme for the crystal structure of complex (1) is depicted in Fig. 1. As
shown in Fig. 1, each Co(II) atom ion is in a distorted octahedral [CoN~5~O]
environment. The four basal nitrogen atoms coordinated to the Co(II) atom
belong to the pyridyl [N4 and N8A] and triazole [N5 and N6A] groups of two bpt
ligands. The Co---N~pyridyl~ distances are 2.2401 (15) and 2.2872(14) \%A,
respectively, which is significantly longer compared with a value of 2.230(4)
and 2.240(4) \%A in
[<i>Co</i>~2~<i>(bpt)</i>~2~<i>(SCN)</i>~2~<i>(MeOH)</i>~2~] (Peng <i>et
al.</i> 2006). The Co---N~triazole~ distances are 2.0806(13) and 2.0601(15)
\%A. The axial position are occupied by one monodentate coordinating N~3~^-^
group with Co---N1 coordination distance of 2.0622(17) \%A and one neutral
methanol ligands with the Co---O1 coordination distance of 2.0954(12) \%A. The
angular distortions of coordination octahedron are determined by the chelate
formation and result in the expected substantial deviations of the chelate
bite angles N5---Co1---N4 and N6A---Co1---N8A [74.56 (5) and 73.91 (5) \%]
from 90\%. Interestingly, intermolecular moderate O---H...N hydrogen bonding
interactions [O...N = 2.6734 (17) \%A; O---H...N =173.6\%] between the
methanol molecules and triazolato groups extend the dinuclear species into a
two-dimensional supramolecular architecture (Fig. 2).

The structure of compound (2) is depicted in Fig. 3. Selected geometric
parameters for (2) are listed in Table 3. Similar to (1), (2) is also a
dinuclear complex. Each Fe(II) atom ion is in a distorted octahedral [FeN~5~O]
environment. The four basal nitrogen atoms coordinated to the Fe(II) atom
belong to the pyridyl [N1 and N5A] and triazole [N2 and N3A] groups of two bpt
ligands. The Fe---N~pyridyl~ distances are 2.353 (2) and 2.3148 (19) \%A, and
they are 2.1079 (18) and 2.1255 (19) \%A for the Fe---N~triazole~ distances.
The axial position are occupied by one monodentate coordinating N~3~^-^ group
with a Fe---N6 coordination distance of 2.042(2) \%A and one neutral methanol
ligand with a Fe---O1 coordination distance of 2.1627(16) \%A. The chelate
bite angles N1---Fe1---N2 and N3A---Fe1---N5A [72.25(7) and 72.87(7) \%] are
deviated from 90\%, which results in a distorted octahedral coordination
environment around the Fe^II^ center. Similar to (1), in compound 2,
intermolecular moderate O---H...N hydrogen bonding interactions [O...N =
2.707(2) \%A; O---H...N =173.5\%] between the methanol molecules and
triazolato groups extend the dinuclear species into a two-dimensional
supramolecular architecture (Fig. 4).
;

_publ_section_acknowledgements  # remove if not required
;
Financial support by the NSFC (20761004, 21061009) and Inner Mongolia Autonomous
Region Fund for Natural Science (2010MS0201), are kindly acknowledged.
;














_publ_section_references
;
Bruker (1997). <i>SMART.</i> Version 5.622. Bruker AXS Inc., Madison, Wisconsin,
USA.

Bruker (1999). <i>SAINT</i>. Version 6.02. Bruker AXS Inc., Madison, Wisconsin,
USA.

Burke, H. M., Gallagher, J. F., Indelli, M. T. & Vos, J. G. (2004). <i>Inorg.
Chim. Acta</i>, <b>357</b>, 2989--3000.

Chen, J.-C., Hu, S., Zhou, A.-J., Tong, L.-M. & Tong, Y.-X. (2006). <i>Z.
Anorg. Allg. Chem.</i> <b>632</b>, 475--481.

D'Alessandro, D. M., Dinolfo, P. H., Hupp, J. T., Junk, P. C. & Keene, F. R.
(2006). <i>Eur. J. Inorg. Chem.</i> 772--783.

Geldard, J. F. & Lion, F. (1965). <i>J. Org. Chem.</i> <b>30</b>, 318--319.

Hartmann, U. & Vahrenkamp, H. (1995). <i>Inorg. Chim. Acta</i>, <b>239</b>,
13--17.

Jalilian, E. & Lidin, S. (2010). <i>Acta Cryst.</i> C<b>66</b>, m227--m230.

Klingele, M. H. & Brooker, S. (2003). <i>Coord. Chem. Rev.</i> <b>241</b>,
119--132.

L\"u, Z.-L., Liu, Z.-L. & Zhang, D.-Q. (2005). <i>Acta Cryst.</i> C<b>61</b>,
m147--m150.

Lipstman, S. & Goldberg, I. (2010). <i>Acta Cryst.</i> C<b>66</b>, m222--m226.

Peng, M.-X., Hong, C.-G., Tan, C.-K., Chen, J.-C. & Tong, M.-L. (2006). <i>J.
Chem. Crystal.</i> <b>36</b>, 703--707.

Schneider, C. J., Cashion, J. D., Moubaraki, B., Neville, S. M., Batten, S. R.,
Turner, D. R. & Murray, K. S. (2007). <i>Polyhedron</i>, <b>26</b>,
1764--1772.

Sheldrick, G. M. (1990). <i>SHELXTL-Plus</i>. Structure Determination Software
Programs. Siemens Analytical X-ray Instruments Inc., Madison, Wisconsin, USA.

Sheldrick, G. M. (2003). <i>SADABS</i>. Version 2.10. University of
G\>ottingen, Germany.

Sheldrick, G. M. (1997). <i>SHELXS97</i> and <i>SHELXL97</i>. University of
G\>ottingen, Germany

Yucesan, G., Yu, M.-H., Ouellette, W., O'Connor, C. J. & Zubieta, J. (2005).
<i>CryEngComm.</i> <b>7</b>, 480--490.

Zhai, Q.-G., Wu, X.-Y., Chen, S.-M., Lu, C.-Z. & Yang, W.-B. (2006). <i>Crystal
Growth & Design.</i> <b>6</b>, 2126--2135.
;







_publ_section_exptl_prep
;
Abpt [4--amino--3,5--bis(2--pyridyl)--1,2,4--triazole] was prepared as described
in the literature (Geldard <i>et al.</i>, 1965). MeOH and NaN~3~ were
purchased from Aldrich and used without any further purification.

Synthesis of (1)

A mixture of Co(ClO~4~)~2~.6H~2~O (0.365 g, 1 mmol), abpt (0.234 g, 1 mmol),
NaN~3~ (0.13 g, 2 mmol), and methanol (15 ml) was transferred and sealed in a
23-ml Teflon reactor, which was heated at 130\%C for 72 h, then cooled to room
temperature at a rate of 5\%C h^-1^, yield a very fine red crystalline product
of (1) in 46%. IR (cm^-1^): 3414, 2055, 2030, 1605, 1571, 1495, 1409, 795,
747, 723, 635. C~26~H~24~Co~2~N~16~O~2~ (710.47).

Synthesis of (2)

A mixture of FeSO~4~.7H~2~O (0.278 g, 1 mmol), abpt (0.234 g, 1 mmol), NaN~3~
(0.13 g, 2 mmol), and methanol (15 ml) was transferred and sealed in a 23-ml
Teflon reactor, which was heated at 130\%C for 72 h, then cooled to room
temperature at a rate of 5\%C h^-1^, yield a very fine red crystalline product
of (2) in 32%. IR (cm^-1^): 3421, 2777, 2057, 1601, 1493, 1469, 1411, 1021,
802, 749, 727, 631. C~26~H~24~Fe~2~N~16~O~2~ (704.31).

It is noted that the abpt is changed into bpt during the reaction, which is
unusual for the "stable" ligand of abpt and probably related to the extreme
condition of solvothermal reaction (Peng <i>et al.</i>, 2006).
;
_publ_section_exptl_refinement
;
All H atoms were found in a difference Fourier map, then included in the
refinement in geometrically idealized positions and constrained to ride on
their parent atoms, with C---H distances of 0.95 (aromatic), and with
<i>U</i>~iso~(H) = 1.2<i>U</i>~eq~(C).
;

#==============================================================================


 
data_I 


_symmetry_space_group_name_hall   '-P 2ac 2ab'
#Added by publCIF




_refine_ls_number_constraints   ?
#Added by publCIF




_cell_special_details   ?
#Added by publCIF



_audit_update_record
;
2010-11-03 # Formatted by publCIF

2010-11-13 # Formatted by IUCr publCIF system
;
 
_audit_creation_method            SHELXL-97 
_chemical_name_systematic 
;
Bis[\m-3,5-bis(2-pyridyl)-1,2,4-triazole]
bis(methanol-\k<i>O</i>)bis(azido-\k<i>N</i>)cobalt(II)
;
 
_chemical_name_common             ? 
_chemical_melting_point           ? 
_chemical_formula_moiety          ? 
_chemical_formula_sum 
 'C26 H24 Co2 N16 O2' 
_chemical_formula_weight          710.47 
 
loop_ 
 _atom_type_symbol 
 _atom_type_description 
 _atom_type_scat_dispersion_real 
 _atom_type_scat_dispersion_imag 
 _atom_type_scat_source 
 'C'  'C'   0.0033   0.0016 
 'International Tables Vol C Tables 4.2.6.8 and 6.1.1.4' 
 'H'  'H'   0.0000   0.0000 
 'International Tables Vol C Tables 4.2.6.8 and 6.1.1.4' 
 'N'  'N'   0.0061   0.0033 
 'International Tables Vol C Tables 4.2.6.8 and 6.1.1.4' 
 'O'  'O'   0.0106   0.0060 
 'International Tables Vol C Tables 4.2.6.8 and 6.1.1.4' 
 'Co'  'Co'   0.3494   0.9721 
 'International Tables Vol C Tables 4.2.6.8 and 6.1.1.4' 
 
_symmetry_cell_setting            orthorhombic 
_symmetry_space_group_name_H-M    'Pbca '
 
loop_ 
 _symmetry_equiv_pos_as_xyz 
 'x, y, z' 
 '-x+1/2, -y, z+1/2' 
 '-x, y+1/2, -z+1/2' 
 'x+1/2, -y+1/2, -z' 
 '-x, -y, -z' 
 'x-1/2, y, -z-1/2' 
 'x, -y-1/2, z-1/2' 
 '-x-1/2, y-1/2, z' 
 
_cell_length_a                    14.241(3) 
_cell_length_b                    10.111(2) 
_cell_length_c                    19.412(4) 
_cell_angle_alpha                 90.00 
_cell_angle_beta                  90.00 
_cell_angle_gamma                 90.00 
_cell_volume                      2795.1(10) 
_cell_formula_units_Z             4 
_cell_measurement_temperature     153(2) 
_cell_measurement_reflns_used     1085 
_cell_measurement_theta_min       2.5105 
_cell_measurement_theta_max       28.7933 
 
_exptl_crystal_description        'block' 
_exptl_crystal_colour             'red' 
_exptl_crystal_size_max           0.10 
_exptl_crystal_size_mid           0.05 
_exptl_crystal_size_min           0.05
_exptl_crystal_density_meas       ? 
_exptl_crystal_density_diffrn     1.688 
_exptl_crystal_density_method     'not measured' 
_exptl_crystal_F_000              1448 
_exptl_absorpt_coefficient_mu     1.247 
_exptl_absorpt_correction_type    multi-scan 
_exptl_absorpt_correction_T_min   0.928 
_exptl_absorpt_correction_T_max   0.940 
_exptl_absorpt_process_details    '(SADABS; Sheldrick, 2003)' 
 
_exptl_special_details 
;

;
 
 
_diffrn_ambient_temperature       153(2) 
_diffrn_radiation_wavelength      0.71073 
_diffrn_radiation_type            MoK\a 
_diffrn_radiation_source          'fine-focus sealed tube' 
_diffrn_radiation_monochromator   graphite 
_diffrn_measurement_device_type   
'(SuperNova, Single source at offset), Eos' 
_diffrn_measurement_method        '\w scans' 
_diffrn_detector_area_resol_mean  16.2116
_diffrn_standards_number          3908 
_diffrn_standards_interval_count  ? 
_diffrn_standards_interval_time   ? 
_diffrn_standards_decay_%         ? 
_diffrn_reflns_number             21904 
_diffrn_reflns_av_R_equivalents   0.0465 
_diffrn_reflns_av_sigmaI/netI     0.0357 
_diffrn_reflns_limit_h_min        -17 
_diffrn_reflns_limit_h_max        18 
_diffrn_reflns_limit_k_min        -13 
_diffrn_reflns_limit_k_max        13 
_diffrn_reflns_limit_l_min        -25 
_diffrn_reflns_limit_l_max        15 
_diffrn_reflns_theta_min          2.10 
_diffrn_reflns_theta_max          27.88 
_reflns_number_total              3328 
_reflns_number_gt                 2692 
_reflns_threshold_expression      >2sigma(I) 
 
_computing_data_collection        'SMART (Bruker, 1997)' 
_computing_cell_refinement        'SAINT (Bruker, 1999)' 
_computing_data_reduction         'SAINT (Bruker, 1999)' 
_computing_structure_solution     'SHELXS-97 (Sheldrick, 1990)' 
_computing_structure_refinement   'SHELXL-97 (Sheldrick, 1997)' 
_computing_molecular_graphics     'Bruker SHELXTL' 
_computing_publication_material   'Bruker SHELXTL'
 
_refine_special_details 
;
Refinement of <i>F</i>^2^ against ALL reflections. The weighted <i>R</i>-factor
<i>wR</i> and goodness of fit <i>S</i> are based on <i>F</i>^2^, conventional
<i>R</i>-factors <i>R</i> are based on <i>F</i>, with <i>F</i> set to zero for
negative <i>F</i>^2^. The threshold expression of <i>F</i>^2^ >
\s(<i>F</i>^2^) is used only for calculating <i>R</i>-factors(gt) <i>etc</i>.
and is not relevant to the choice of reflections for refinement.
<i>R</i>-factors based on <i>F</i>^2^ are statistically about twice as large
as those based on <i>F</i>, and <i>R</i>- factors based on ALL data will be
even larger.
; 
 
_refine_ls_structure_factor_coef  Fsqd  
_refine_ls_matrix_type            full 
_refine_ls_weighting_scheme       calc  
_refine_ls_weighting_details 
 'calc w=1/[\s^2^(Fo^2^)+(0.0556P)^2^+0.0000P] where P=(Fo^2^+2Fc^2^)/3' 
_atom_sites_solution_primary      direct 
_atom_sites_solution_secondary    difmap 
_atom_sites_solution_hydrogens    geom 
_refine_ls_hydrogen_treatment     constr
_refine_ls_extinction_method      SHELXL 
_refine_ls_extinction_coef        0.0443(14) 
_refine_ls_extinction_expression 
 'Fc^*^=kFc[1+0.001xFc^2^\l^3^/sin(2\q)]^-1/4^' 
_refine_ls_number_reflns          3328 
_refine_ls_number_parameters      210 
_refine_ls_number_restraints      0 
_refine_ls_R_factor_all           0.0424 
_refine_ls_R_factor_gt            0.0375 
_refine_ls_wR_factor_ref          0.0893 
_refine_ls_wR_factor_gt           0.0869 
_refine_ls_goodness_of_fit_ref    1.063 
_refine_ls_restrained_S_all       1.063 
_refine_ls_shift/su_max           0.000 
_refine_ls_shift/su_mean          0.000 
 
loop_ 
 _atom_site_label 
 _atom_site_type_symbol 
 _atom_site_fract_x 
 _atom_site_fract_y 
 _atom_site_fract_z 
 _atom_site_U_iso_or_equiv 
 _atom_site_adp_type 
 _atom_site_occupancy 
 _atom_site_symmetry_multiplicity 
 _atom_site_calc_flag 
 _atom_site_refinement_flags 
 _atom_site_disorder_assembly 
 _atom_site_disorder_group 
C1 C 0.20120(12) 0.29313(17) 0.18343(9) 0.0193(4) Uani 1 1 d . . . 
H1 H 0.1592 0.2337 0.2031 0.023 Uiso 1 1 calc R . . 
C2 C 0.29219(12) 0.29586(18) 0.20800(10) 0.0249(4) Uani 1 1 d . . . 
H2 H 0.3103 0.2397 0.2435 0.030 Uiso 1 1 calc R . . 
C3 C 0.35639(13) 0.38317(16) 0.17914(10) 0.0244(4) Uani 1 1 d . . . 
H3 H 0.4184 0.3854 0.1942 0.029 Uiso 1 1 calc R . . 
C4 C 0.32552(12) 0.46694(17) 0.12728(9) 0.0202(4) Uani 1 1 d . . . 
H4 H 0.3664 0.5273 0.1071 0.024 Uiso 1 1 calc R . . 
C5 C 0.23284(11) 0.45939(15) 0.10595(9) 0.0154(3) Uani 1 1 d . . . 
C6 C 0.19238(11) 0.54319(15) 0.05202(9) 0.0148(3) Uani 1 1 d . . . 
C7 C 0.16217(11) 0.67832(16) -0.02682(8) 0.0148(3) Uani 1 1 d . . . 
C8 C 0.15978(11) 0.78236(16) -0.07985(8) 0.0148(3) Uani 1 1 d . . . 
C9 C 0.23507(13) 0.86449(15) -0.09517(10) 0.0176(4) Uani 1 1 d . . . 
H9 H 0.2921 0.8551 -0.0724 0.021 Uiso 1 1 calc R . . 
C10 C 0.22320(12) 0.96117(16) -0.14539(9) 0.0198(4) Uani 1 1 d . . . 
H10 H 0.2724 1.0174 -0.1570 0.024 Uiso 1 1 calc R . . 
C11 C 0.13699(12) 0.97240(16) -0.17782(9) 0.0195(4) Uani 1 1 d . . . 
H11 H 0.1268 1.0377 -0.2107 0.023 Uiso 1 1 calc R . . 
C12 C 0.06593(12) 0.88413(15) -0.16034(9) 0.0171(4) Uani 1 1 d . . . 
H12 H 0.0087 0.8907 -0.1831 0.020 Uiso 1 1 calc R . . 
C13 C 0.04528(14) 0.1561(2) -0.03406(11) 0.0286(4) Uani 1 1 d . . . 
H13A H -0.0186 0.1351 -0.0226 0.043 Uiso 1 1 calc R . . 
H13B H 0.0789 0.0761 -0.0441 0.043 Uiso 1 1 calc R . . 
H13C H 0.0464 0.2130 -0.0737 0.043 Uiso 1 1 calc R . . 
N1 N -0.02752(11) 0.47008(17) 0.16623(10) 0.0303(4) Uani 1 1 d . . . 
N2 N -0.03888(10) 0.58020(16) 0.17928(8) 0.0204(3) Uani 1 1 d . . . 
N3 N -0.05316(14) 0.69034(17) 0.19488(10) 0.0394(5) Uani 1 1 d . . . 
H1C H 0.1526 0.1986 0.0225 0.059 Uiso 1 1 d R . . 
N4 N 0.17049(10) 0.37177(13) 0.13275(7) 0.0156(3) Uani 1 1 d . . . 
N5 N 0.10384(9) 0.51995(13) 0.03339(7) 0.0159(3) Uani 1 1 d . . . 
N6 N 0.08448(9) 0.60678(13) -0.01771(8) 0.0164(3) Uani 1 1 d . . . 
N7 N 0.23254(10) 0.64282(13) 0.01593(8) 0.0152(3) Uani 1 1 d . . . 
N8 N 0.07592(9) 0.79067(13) -0.11258(7) 0.0155(3) Uani 1 1 d . . . 
O1 O 0.08847(8) 0.22151(12) 0.02261(6) 0.0192(3) Uani 1 1 d . . . 
Co1 Co 0.028614(14) 0.37134(2) 0.082897(12) 0.01306(11) Uani 1 1 d . . . 
 
loop_ 
 _atom_site_aniso_label 
 _atom_site_aniso_U_11 
 _atom_site_aniso_U_22 
 _atom_site_aniso_U_33 
 _atom_site_aniso_U_23 
 _atom_site_aniso_U_13 
 _atom_site_aniso_U_12 
C1 0.0235(9) 0.0178(8) 0.0166(8) 0.0021(7) 0.0000(7) -0.0016(7) 
C2 0.0282(10) 0.0241(9) 0.0224(9) 0.0076(8) -0.0073(7) 0.0006(7) 
C3 0.0195(9) 0.0258(9) 0.0281(10) 0.0045(8) -0.0088(8) -0.0003(7) 
C4 0.0177(8) 0.0199(8) 0.0232(9) 0.0019(7) -0.0036(7) -0.0023(7) 
C5 0.0159(8) 0.0138(7) 0.0164(8) -0.0010(6) -0.0009(7) 0.0006(6) 
C6 0.0119(8) 0.0161(7) 0.0164(8) -0.0006(6) -0.0004(6) 0.0000(6) 
C7 0.0108(8) 0.0150(8) 0.0185(8) 0.0005(6) 0.0011(6) 0.0001(6) 
C8 0.0129(8) 0.0144(8) 0.0171(8) -0.0003(6) 0.0010(6) 0.0009(6) 
C9 0.0153(9) 0.0180(8) 0.0194(8) -0.0004(7) 0.0005(7) -0.0010(6) 
C10 0.0218(9) 0.0170(8) 0.0207(9) -0.0003(7) 0.0052(7) -0.0052(7) 
C11 0.0260(9) 0.0161(8) 0.0164(8) 0.0013(7) 0.0035(7) 0.0014(7) 
C12 0.0181(8) 0.0179(8) 0.0152(8) -0.0004(7) 0.0011(7) 0.0046(6) 
C13 0.0245(10) 0.0374(10) 0.0238(10) -0.0105(9) -0.0022(8) 0.0011(8) 
N1 0.0357(10) 0.0263(9) 0.0288(10) -0.0004(7) 0.0149(7) 0.0017(7) 
N2 0.0184(8) 0.0285(8) 0.0143(7) -0.0006(7) 0.0003(6) -0.0007(6) 
N3 0.0585(12) 0.0258(9) 0.0338(11) -0.0058(8) 0.0068(9) 0.0054(9) 
N4 0.0161(7) 0.0162(7) 0.0145(7) -0.0001(5) 0.0003(6) -0.0006(5) 
N5 0.0123(7) 0.0173(7) 0.0182(7) 0.0044(6) -0.0003(6) 0.0002(5) 
N6 0.0110(7) 0.0170(7) 0.0212(7) 0.0060(6) -0.0001(6) 0.0004(5) 
N7 0.0122(7) 0.0159(6) 0.0173(7) 0.0015(5) -0.0014(6) -0.0021(5) 
N8 0.0144(7) 0.0159(7) 0.0163(7) -0.0001(6) 0.0019(6) 0.0017(5) 
O1 0.0132(6) 0.0240(6) 0.0203(6) -0.0060(5) -0.0012(5) 0.0039(5) 
Co1 0.01019(15) 0.01394(15) 0.01506(15) 0.00185(8) 0.00072(8) 0.00079(7) 
 
_geom_special_details 
;
All e.s.d.'s (except the e.s.d. in the dihedral angle between two l.s. planes)
are estimated using the full covariance matrix. The cell e.s.d.'s are taken
into account individually in the estimation of e.s.d.'s in distances, angles
and torsion angles; correlations between e.s.d.'s in cell parameters are only
used when they are defined by crystal symmetry. An approximate (isotropic)
treatment of cell e.s.d.'s is used for estimating e.s.d.'s involving l.s.
planes.
; 
 
loop_ 
 _geom_bond_atom_site_label_1 
 _geom_bond_atom_site_label_2 
 _geom_bond_distance 
 _geom_bond_site_symmetry_2 
 _geom_bond_publ_flag 
C1 N4 1.338(2) . no 
C1 C2 1.381(2) . no 
C1 H1 0.9300 . no
C2 C3 1.389(3) . no 
C2 H2 0.9300 . no
C3 C4 1.387(2) . no 
C3 H3 0.9300 . no
C4 C5 1.385(2) . no 
C4 H4 0.9300 . no
C5 N4 1.358(2) . no 
C5 C6 1.465(2) . no 
C6 N5 1.333(2) . no 
C6 N7 1.354(2) . no 
C7 N6 1.334(2) . no 
C7 N7 1.350(2) . no 
C7 C8 1.472(2) . no 
C8 N8 1.355(2) . no 
C8 C9 1.388(2) . no 
C9 C10 1.391(2) . no 
C9 H9 0.9300 . no
C10 C11 1.384(2) . no 
C10 H10 0.9300 . no
C11 C12 1.391(2) . no 
C11 H11 0.9300 . no
C12 N8 1.331(2) . no
C12 H12 0.9300 . no 
C13 O1 1.423(2) . no 
C13 H13A 0.9600 . no 
C13 H13B 0.9600 . no 
C13 H13C 0.9600 . no
N1 N2 1.153(2) . no 
N1 Co1 2.0622(17) . yes 
N2 N3 1.172(2) . no 
N4 Co1 2.2401(15) . yes 
N5 N6 1.3531(19) . no 
N5 Co1 2.0806(13) . yes 
N6 Co1 2.0601(15) 5_565 yes 
N8 Co1 2.2873(14) 5_565 yes 
O1 Co1 2.0954(12) . yes 
O1 H1C 0.9428 . no 
Co1 N6 2.0601(15) 5_565 yes 
Co1 N8 2.2872(14) 5_565 yes 
 
loop_ 
 _geom_angle_atom_site_label_1 
 _geom_angle_atom_site_label_2 
 _geom_angle_atom_site_label_3 
 _geom_angle 
 _geom_angle_site_symmetry_1 
 _geom_angle_site_symmetry_3 
 _geom_angle_publ_flag 
N4 C1 C2 123.27(16) . . no 
N4 C1 H1 118.4 . . no 
C2 C1 H1 118.4 . . no 
C1 C2 C3 119.41(17) . . no 
C1 C2 H2 120.3 . . no 
C3 C2 H2 120.3 . . no 
C4 C3 C2 118.18(17) . . no 
C4 C3 H3 120.9 . . no 
C2 C3 H3 120.9 . . no 
C5 C4 C3 119.02(16) . . no 
C5 C4 H4 120.5 . . no 
C3 C4 H4 120.5 . . no 
N4 C5 C4 122.99(16) . . no 
N4 C5 C6 113.20(14) . . no 
C4 C5 C6 123.81(15) . . no 
N5 C6 N7 112.99(14) . . no 
N5 C6 C5 117.65(14) . . no 
N7 C6 C5 129.35(15) . . no 
N6 C7 N7 112.97(14) . . no 
N6 C7 C8 117.45(14) . . no 
N7 C7 C8 129.57(14) . . no 
N8 C8 C9 122.88(15) . . no 
N8 C8 C7 113.11(14) . . no 
C9 C8 C7 124.01(15) . . no 
C8 C9 C10 118.47(17) . . no 
C8 C9 H9 120.8 . . no 
C10 C9 H9 120.8 . . no 
C11 C10 C9 118.96(16) . . no 
C11 C10 H10 120.5 . . no 
C9 C10 H10 120.5 . . no 
C10 C11 C12 118.79(16) . . no 
C10 C11 H11 120.6 . . no 
C12 C11 H11 120.6 . . no 
N8 C12 C11 123.19(16) . . no 
N8 C12 H12 118.4 . . no 
C11 C12 H12 118.4 . . no 
O1 C13 H13A 109.5 . . no 
O1 C13 H13B 109.5 . . no 
H13A C13 H13B 109.5 . . no 
O1 C13 H13C 109.5 . . no 
H13A C13 H13C 109.5 . . no 
H13B C13 H13C 109.5 . . no 
N2 N1 Co1 133.95(14) . . yes 
N1 N2 N3 176.9(2) . . no 
C1 N4 C5 117.09(15) . . no 
C1 N4 Co1 127.67(11) . . yes 
C5 N4 Co1 115.18(11) . . yes 
C6 N5 N6 106.10(13) . . no 
C6 N5 Co1 119.29(11) . . yes 
N6 N5 Co1 134.61(10) . . yes 
C7 N6 N5 106.26(13) . . no 
C7 N6 Co1 120.60(11) . 5_565 yes 
N5 N6 Co1 132.79(10) . 5_565 yes 
C7 N7 C6 101.67(13) . . no 
C12 N8 C8 117.68(14) . . no 
C12 N8 Co1 127.90(11) . 5_565 yes 
C8 N8 Co1 114.26(10) . 5_565 yes 
C13 O1 Co1 126.28(11) . . yes 
C13 O1 H1C 107.7 . . no 
Co1 O1 H1C 124.9 . . yes 
N6 Co1 N1 97.29(7) 5_565 . yes 
N6 Co1 N5 92.36(5) 5_565 . yes 
N1 Co1 N5 102.26(6) . . yes 
N6 Co1 O1 93.01(5) 5_565 . yes 
N1 Co1 O1 161.04(6) . . yes 
N5 Co1 O1 93.13(5) . . yes 
N6 Co1 N4 165.98(5) 5_565 . yes 
N1 Co1 N4 90.56(6) . . yes 
N5 Co1 N4 74.56(5) . . yes 
O1 Co1 N4 82.86(5) . . yes 
N6 Co1 N8 73.91(5) 5_565 5_565 yes 
N1 Co1 N8 84.07(6) . 5_565 yes 
N5 Co1 N8 165.63(5) . 5_565 yes 
O1 Co1 N8 83.55(5) . 5_565 yes 
N4 Co1 N8 118.65(5) . 5_565 yes 
 
loop_ 
 _geom_torsion_atom_site_label_1 
 _geom_torsion_atom_site_label_2 
 _geom_torsion_atom_site_label_3 
 _geom_torsion_atom_site_label_4 
 _geom_torsion 
 _geom_torsion_site_symmetry_1 
 _geom_torsion_site_symmetry_2 
 _geom_torsion_site_symmetry_3 
 _geom_torsion_site_symmetry_4 
 _geom_torsion_publ_flag 
N4 C1 C2 C3 -0.4(3) . . . . ? 
C1 C2 C3 C4 1.4(3) . . . . ? 
C2 C3 C4 C5 -0.7(3) . . . . ? 
C3 C4 C5 N4 -1.1(3) . . . . ? 
C3 C4 C5 C6 179.65(16) . . . . ? 
N4 C5 C6 N5 -3.5(2) . . . . ? 
C4 C5 C6 N5 175.79(16) . . . . ? 
N4 C5 C6 N7 177.75(16) . . . . ? 
C4 C5 C6 N7 -3.0(3) . . . . ? 
N6 C7 C8 N8 0.2(2) . . . . ? 
N7 C7 C8 N8 -179.30(16) . . . . ? 
N6 C7 C8 C9 -179.95(16) . . . . ? 
N7 C7 C8 C9 0.5(3) . . . . ? 
N8 C8 C9 C10 1.3(3) . . . . ? 
C7 C8 C9 C10 -178.53(15) . . . . ? 
C8 C9 C10 C11 0.4(3) . . . . ? 
C9 C10 C11 C12 -1.7(2) . . . . ? 
C10 C11 C12 N8 1.6(3) . . . . ? 
Co1 N1 N2 N3 165(4) . . . . ? 
C2 C1 N4 C5 -1.3(3) . . . . ? 
C2 C1 N4 Co1 175.98(14) . . . . ? 
C4 C5 N4 C1 2.1(2) . . . . ? 
C6 C5 N4 C1 -178.63(14) . . . . ? 
C4 C5 N4 Co1 -175.53(13) . . . . ? 
C6 C5 N4 Co1 3.77(18) . . . . ? 
N7 C6 N5 N6 0.62(19) . . . . ? 
C5 C6 N5 N6 -178.32(14) . . . . ? 
N7 C6 N5 Co1 -179.62(11) . . . . ? 
C5 C6 N5 Co1 1.4(2) . . . . ? 
N7 C7 N6 N5 0.09(19) . . . . ? 
C8 C7 N6 N5 -179.50(13) . . . . ? 
N7 C7 N6 Co1 -173.89(11) . . . 5_565 ? 
C8 C7 N6 Co1 6.5(2) . . . 5_565 ? 
C6 N5 N6 C7 -0.42(18) . . . . ? 
Co1 N5 N6 C7 179.88(12) . . . . ? 
C6 N5 N6 Co1 172.51(12) . . . 5_565 ? 
Co1 N5 N6 Co1 -7.2(2) . . . 5_565 ? 
N6 C7 N7 C6 0.27(18) . . . . ? 
C8 C7 N7 C6 179.80(17) . . . . ? 
N5 C6 N7 C7 -0.55(18) . . . . ? 
C5 C6 N7 C7 178.25(17) . . . . ? 
C11 C12 N8 C8 0.0(2) . . . . ? 
C11 C12 N8 Co1 -175.13(12) . . . 5_565 ? 
C9 C8 N8 C12 -1.5(2) . . . . ? 
C7 C8 N8 C12 178.35(14) . . . . ? 
C9 C8 N8 Co1 174.32(13) . . . 5_565 ? 
C7 C8 N8 Co1 -5.85(17) . . . 5_565 ? 
N2 N1 Co1 N6 -76.5(2) . . . 5_565 ? 
N2 N1 Co1 N5 17.5(2) . . . . ? 
N2 N1 Co1 O1 161.11(15) . . . . ? 
N2 N1 Co1 N4 91.8(2) . . . . ? 
N2 N1 Co1 N8 -149.4(2) . . . 5_565 ? 
C6 N5 Co1 N6 -174.40(13) . . . 5_565 ? 
N6 N5 Co1 N6 5.28(18) . . . 5_565 ? 
C6 N5 Co1 N1 87.62(13) . . . . ? 
N6 N5 Co1 N1 -92.71(16) . . . . ? 
C6 N5 Co1 O1 -81.25(12) . . . . ? 
N6 N5 Co1 O1 98.43(15) . . . . ? 
C6 N5 Co1 N4 0.46(12) . . . . ? 
N6 N5 Co1 N4 -179.86(16) . . . . ? 
C6 N5 Co1 N8 -157.39(18) . . . 5_565 ? 
N6 N5 Co1 N8 22.3(3) . . . 5_565 ? 
C13 O1 Co1 N6 -9.55(15) . . . 5_565 ? 
C13 O1 Co1 N1 113.4(2) . . . . ? 
C13 O1 Co1 N5 -102.09(15) . . . . ? 
C13 O1 Co1 N4 -176.09(15) . . . . ? 
C13 O1 Co1 N8 63.88(15) . . . 5_565 ? 
C1 N4 Co1 N6 -158.0(2) . . . 5_565 ? 
C5 N4 Co1 N6 19.3(3) . . . 5_565 ? 
C1 N4 Co1 N1 77.72(15) . . . . ? 
C5 N4 Co1 N1 -104.98(12) . . . . ? 
C1 N4 Co1 N5 -179.71(15) . . . . ? 
C5 N4 Co1 N5 -2.41(11) . . . . ? 
C1 N4 Co1 O1 -84.45(14) . . . . ? 
C5 N4 Co1 O1 92.85(12) . . . . ? 
C1 N4 Co1 N8 -5.84(16) . . . 5_565 ? 
C5 N4 Co1 N8 171.46(11) . . . 5_565 ? 
 
loop_ 
 _geom_hbond_atom_site_label_D 
 _geom_hbond_atom_site_label_H 
 _geom_hbond_atom_site_label_A 
 _geom_hbond_distance_DH 
 _geom_hbond_distance_HA 
 _geom_hbond_distance_DA 
 _geom_hbond_angle_DHA 
 _geom_hbond_site_symmetry_A 
O1 H1C N7  0.94 1.73 2.6734(17) 173.6 8_655 
 
_diffrn_measured_fraction_theta_max    0.998 
_diffrn_reflns_theta_full              27.88 
_diffrn_measured_fraction_theta_full   0.998 
_refine_diff_density_max    0.784 
_refine_diff_density_min   -0.769 
_refine_diff_density_rms    0.120 

 
data_II 


_symmetry_space_group_name_hall   '-P 2ac 2ab'
#Added by publCIF


 
_audit_creation_method            SHELXL-97 
_chemical_name_systematic 
;
Bis[\m-3,5-bis(2-pyridyl)-1,2,4-triazole]
bis(methanol-\k<i>O</i>)bis(azido-\k<i>N</i>)iron(II)
;
 
_chemical_name_common             ? 
_chemical_melting_point           ? 
_chemical_formula_moiety          ? 
_chemical_formula_sum 
 'C26 H24 Fe2 N16 O2' 
_chemical_formula_weight          704.31 
 
loop_ 
 _atom_type_symbol 
 _atom_type_description 
 _atom_type_scat_dispersion_real 
 _atom_type_scat_dispersion_imag 
 _atom_type_scat_source 
 'C'  'C'   0.0033   0.0016 
 'International Tables Vol C Tables 4.2.6.8 and 6.1.1.4' 
 'H'  'H'   0.0000   0.0000 
 'International Tables Vol C Tables 4.2.6.8 and 6.1.1.4' 
 'N'  'N'   0.0061   0.0033 
 'International Tables Vol C Tables 4.2.6.8 and 6.1.1.4' 
 'O'  'O'   0.0106   0.0060 
 'International Tables Vol C Tables 4.2.6.8 and 6.1.1.4' 
 'Fe'  'Fe'   0.3463   0.8444 
 'International Tables Vol C Tables 4.2.6.8 and 6.1.1.4' 
 
_symmetry_cell_setting           orthorhombic
_symmetry_space_group_name_H-M   'Pbca '
 
loop_ 
 _symmetry_equiv_pos_as_xyz 
 'x, y, z' 
 '-x+1/2, -y, z+1/2' 
 '-x, y+1/2, -z+1/2' 
 'x+1/2, -y+1/2, -z' 
 '-x, -y, -z' 
 'x-1/2, y, -z-1/2' 
 'x, -y-1/2, z-1/2' 
 '-x-1/2, y-1/2, z' 
 
_cell_length_a                    14.365(3) 
_cell_length_b                    10.194(2) 
_cell_length_c                    19.627(4) 
_cell_angle_alpha                 90.00 
_cell_angle_beta                  90.00 
_cell_angle_gamma                 90.00 
_cell_volume                      2874.1(10) 
_cell_formula_units_Z             4 
_cell_measurement_temperature     153(2) 
_cell_measurement_reflns_used     1085 
_cell_measurement_theta_min       2.5105 
_cell_measurement_theta_max       28.7933
 
_exptl_crystal_description        'block' 
_exptl_crystal_colour             'red'
_exptl_crystal_size_max           0.12 
_exptl_crystal_size_mid           0.06 
_exptl_crystal_size_min           0.06
_exptl_crystal_density_meas       ? 
_exptl_crystal_density_diffrn     1.628 
_exptl_crystal_density_method     'not measured' 
_exptl_crystal_F_000              1440 
_exptl_absorpt_coefficient_mu     1.068 
_exptl_absorpt_correction_type    multi-scan
_exptl_absorpt_correction_T_min   0.926 
_exptl_absorpt_correction_T_max   0.938  
_exptl_absorpt_process_details    '(SADABS; Sheldrick, 2003)' 
 
_exptl_special_details 
;

;
 
 
_diffrn_ambient_temperature       153(2) 
_diffrn_radiation_wavelength      0.71073 
_diffrn_radiation_type            MoK\a 
_diffrn_radiation_source          'fine-focus sealed tube' 
_diffrn_radiation_monochromator   graphite 
_diffrn_measurement_device_type   
'(SuperNova, Single source at offset), Eos' 
_diffrn_measurement_method        '\w scans' 
_diffrn_detector_area_resol_mean  16.2116
_diffrn_standards_number          3908
_diffrn_standards_interval_count  ? 
_diffrn_standards_interval_time   ? 
_diffrn_standards_decay_%         ? 
_diffrn_reflns_number             20170 
_diffrn_reflns_av_R_equivalents   0.0609 
_diffrn_reflns_av_sigmaI/netI     0.0450 
_diffrn_reflns_limit_h_min        -19 
_diffrn_reflns_limit_h_max        19 
_diffrn_reflns_limit_k_min        -12 
_diffrn_reflns_limit_k_max        13 
_diffrn_reflns_limit_l_min        -26 
_diffrn_reflns_limit_l_max        17 
_diffrn_reflns_theta_min          2.08 
_diffrn_reflns_theta_max          28.36 
_reflns_number_total              3588 
_reflns_number_gt                 2385 
_reflns_threshold_expression      >2sigma(I) 
 
_computing_data_collection        'SMART (Bruker, 1997)' 
_computing_cell_refinement        'SAINT (Bruker, 1999)' 
_computing_data_reduction         'SAINT (Bruker, 1999)' 
_computing_structure_solution     'SHELXS-97 (Sheldrick, 1990)' 
_computing_structure_refinement   'SHELXL-97 (Sheldrick, 1997)' 
_computing_molecular_graphics     'Bruker SHELXTL' 
_computing_publication_material   'Bruker SHELXTL'
 
_refine_special_details 
;
Refinement of <i>F</i>^2^ against ALL reflections. The weighted <i>R</i>-factor
<i>wR</i> and goodness of fit <i>S</i> are based on <i>F</i>^2^, conventional
<i>R</i>-factors <i>R</i> are based on <i>F</i>, with <i>F</i> set to zero for
negative <i>F</i>^2^. The threshold expression of <i>F</i>^2^ >
\s(<i>F</i>^2^) is used only for calculating <i>R</i>-factors(gt) <i>etc</i>.
and is not relevant to the choice of reflections for refinement.
<i>R</i>-factors based on <i>F</i>^2^ are statistically about twice as large
as those based on <i>F</i>, and <i>R</i>- factors based on ALL data will be
even larger.
; 
 
_refine_ls_structure_factor_coef  Fsqd  
_refine_ls_matrix_type            full 
_refine_ls_weighting_scheme       calc  
_refine_ls_weighting_details 
 'calc w=1/[\s^2^(Fo^2^)+(0.0336P)^2^+0.9398P] where P=(Fo^2^+2Fc^2^)/3' 
_atom_sites_solution_primary      direct 
_atom_sites_solution_secondary    difmap 
_atom_sites_solution_hydrogens    geom 
_refine_ls_hydrogen_treatment     constr
_refine_ls_extinction_method      none 
_refine_ls_extinction_coef        ? 
_refine_ls_number_reflns          3588 
_refine_ls_number_parameters      210 
_refine_ls_number_restraints      0 
_refine_ls_R_factor_all           0.0712 
_refine_ls_R_factor_gt            0.0336 
_refine_ls_wR_factor_ref          0.0851 
_refine_ls_wR_factor_gt           0.0704 
_refine_ls_goodness_of_fit_ref    0.999 
_refine_ls_restrained_S_all       0.999 
_refine_ls_shift/su_max           0.000 
_refine_ls_shift/su_mean          0.000 
 
loop_ 
 _atom_site_label 
 _atom_site_type_symbol 
 _atom_site_fract_x 
 _atom_site_fract_y 
 _atom_site_fract_z 
 _atom_site_U_iso_or_equiv 
 _atom_site_adp_type 
 _atom_site_occupancy 
 _atom_site_symmetry_multiplicity 
 _atom_site_calc_flag 
 _atom_site_refinement_flags 
 _atom_site_disorder_assembly 
 _atom_site_disorder_group 
C1 C 0.93008(17) 0.1178(2) 0.16071(12) 0.0340(5) Uani 1 1 d . . . 
H1 H 0.9864 0.1114 0.1838 0.041 Uiso 1 1 calc R . . 
C2 C 0.85985(18) 0.0307(2) 0.17746(13) 0.0378(6) Uani 1 1 d . . . 
H2 H 0.8693 -0.0334 0.2104 0.045 Uiso 1 1 calc R . . 
C3 C 0.77552(18) 0.0410(3) 0.14427(13) 0.0392(6) Uani 1 1 d . . . 
H3 H 0.7267 -0.0151 0.1551 0.047 Uiso 1 1 calc R . . 
C4 C 0.76471(17) 0.1362(2) 0.09451(12) 0.0359(6) Uani 1 1 d . . . 
H4 H 0.7086 0.1449 0.0713 0.043 Uiso 1 1 calc R . . 
C5 C 0.83897(15) 0.2183(2) 0.07994(11) 0.0270(5) Uani 1 1 d . . . 
C6 C 0.83678(14) 0.3213(2) 0.02767(11) 0.0266(5) Uani 1 1 d . . . 
C7 C 0.80546(15) 0.4552(2) -0.05022(11) 0.0265(5) Uani 1 1 d . . . 
C8 C 0.76364(15) 0.5382(2) -0.10341(11) 0.0280(5) Uani 1 1 d . . . 
C9 C 0.67163(17) 0.5287(3) -0.12357(13) 0.0383(6) Uani 1 1 d . . . 
H9 H 0.6321 0.4678 -0.1034 0.046 Uiso 1 1 calc R . . 
C10 C 0.63958(19) 0.6113(3) -0.17417(15) 0.0492(7) Uani 1 1 d . . . 
H10 H 0.5778 0.6082 -0.1882 0.059 Uiso 1 1 calc R . . 
C11 C 0.70093(19) 0.6986(3) -0.20345(14) 0.0491(7) Uani 1 1 d . . . 
H11 H 0.6815 0.7537 -0.2384 0.059 Uiso 1 1 calc R . . 
C12 C 0.79149(18) 0.7031(3) -0.18033(13) 0.0389(6) Uani 1 1 d . . . 
H12 H 0.8322 0.7628 -0.2003 0.047 Uiso 1 1 calc R . . 
C13 C 1.0453(2) 0.1639(3) -0.03618(15) 0.0598(9) Uani 1 1 d . . . 
H13A H 0.9822 0.1408 -0.0255 0.090 Uiso 1 1 calc R . . 
H13B H 1.0795 0.0862 -0.0478 0.090 Uiso 1 1 calc R . . 
H13C H 1.0459 0.2236 -0.0740 0.090 Uiso 1 1 calc R . . 
N1 N 0.92144(13) 0.21017(19) 0.11342(9) 0.0292(4) Uani 1 1 d . . . 
N2 N 0.91324(12) 0.39312(18) 0.01860(10) 0.0298(4) Uani 1 1 d . . . 
N3 N 0.89300(12) 0.47916(18) -0.03221(10) 0.0300(4) Uani 1 1 d . . . 
N4 N 0.76621(12) 0.35608(18) -0.01433(10) 0.0286(4) Uani 1 1 d . . . 
N5 N 0.82346(13) 0.62590(19) -0.13076(9) 0.0294(4) Uani 1 1 d . . . 
N6 N 0.97899(18) 0.4756(3) 0.16781(12) 0.0554(7) Uani 1 1 d . . . 
N7 N 0.95954(15) 0.5832(2) 0.18134(11) 0.0422(5) Uani 1 1 d . . . 
N8 N 0.9393(2) 0.6884(3) 0.19789(15) 0.0764(9) Uani 1 1 d . . . 
O1 O 1.08693(11) 0.22468(17) 0.02106(8) 0.0363(4) Uani 1 1 d . . . 
Fe1 Fe 1.02811(2) 0.37650(3) 0.084868(16) 0.02636(10) Uani 1 1 d . . . 
H1C H 1.1472 0.1979 0.0223 0.058(9) Uiso 1 1 d R . . 
 
loop_ 
 _atom_site_aniso_label 
 _atom_site_aniso_U_11 
 _atom_site_aniso_U_22 
 _atom_site_aniso_U_33 
 _atom_site_aniso_U_23 
 _atom_site_aniso_U_13 
 _atom_site_aniso_U_12 
C1 0.0333(12) 0.0385(14) 0.0302(13) 0.0039(11) 0.0011(10) 0.0071(11) 
C2 0.0505(16) 0.0299(13) 0.0329(14) 0.0066(11) 0.0047(11) 0.0062(12) 
C3 0.0428(15) 0.0326(14) 0.0424(16) 0.0032(12) 0.0053(12) -0.0081(12) 
C4 0.0314(13) 0.0354(14) 0.0409(15) 0.0042(12) -0.0019(10) -0.0069(11) 
C5 0.0239(11) 0.0275(12) 0.0295(12) -0.0013(10) 0.0002(9) 0.0009(9) 
C6 0.0195(11) 0.0275(12) 0.0328(13) 0.0018(10) -0.0009(9) -0.0006(9) 
C7 0.0213(11) 0.0289(12) 0.0294(13) 0.0015(10) -0.0012(9) -0.0015(9) 
C8 0.0239(11) 0.0295(13) 0.0304(13) 0.0010(10) -0.0027(9) 0.0011(10) 
C9 0.0291(13) 0.0388(15) 0.0468(16) 0.0098(12) -0.0098(11) -0.0047(11) 
C10 0.0365(15) 0.0533(18) 0.0578(18) 0.0154(15) -0.0184(13) -0.0022(13) 
C11 0.0492(17) 0.0502(17) 0.0478(17) 0.0181(14) -0.0159(13) 0.0013(14) 
C12 0.0434(15) 0.0359(14) 0.0374(15) 0.0087(12) -0.0018(11) -0.0048(12) 
C13 0.0468(18) 0.079(2) 0.0538(19) -0.0268(17) -0.0015(14) 0.0038(15) 
N1 0.0256(10) 0.0327(11) 0.0292(10) 0.0024(9) 0.0017(8) 0.0027(8) 
N2 0.0216(9) 0.0318(11) 0.0361(11) 0.0110(9) -0.0025(8) 0.0007(8) 
N3 0.0211(9) 0.0317(11) 0.0370(11) 0.0091(9) -0.0028(8) -0.0003(8) 
N4 0.0227(9) 0.0312(11) 0.0317(10) 0.0048(8) -0.0040(7) -0.0024(8) 
N5 0.0270(10) 0.0316(10) 0.0296(10) 0.0023(9) -0.0009(8) -0.0017(9) 
N6 0.0680(17) 0.0487(15) 0.0494(15) -0.0086(12) 0.0173(12) 0.0069(13) 
N7 0.0413(13) 0.0541(16) 0.0312(12) -0.0034(10) 0.0020(10) 0.0035(11) 
N8 0.102(2) 0.0599(19) 0.067(2) -0.0139(16) 0.0023(17) 0.0201(18) 
O1 0.0247(9) 0.0431(10) 0.0410(10) -0.0093(8) -0.0008(7) 0.0067(7) 
Fe1 0.01956(15) 0.02918(17) 0.03034(18) 0.00290(15) 0.00022(13) 0.00025(14) 
 
_geom_special_details 
;
All e.s.d.'s (except the e.s.d. in the dihedral angle between two l.s. planes)
are estimated using the full covariance matrix. The cell e.s.d.'s are taken
into account individually in the estimation of e.s.d.'s in distances, angles
and torsion angles; correlations between e.s.d.'s in cell parameters are only
used when they are defined by crystal symmetry. An approximate (isotropic)
treatment of cell e.s.d.'s is used for estimating e.s.d.'s involving l.s.
planes.
; 
 
loop_ 
 _geom_bond_atom_site_label_1 
 _geom_bond_atom_site_label_2 
 _geom_bond_distance 
 _geom_bond_site_symmetry_2 
 _geom_bond_publ_flag 
C1 N1 1.328(3) . no 
C1 C2 1.383(3) . no 
C1 H1 0.9300 . no 
C2 C3 1.380(4) . no 
C2 H2 0.9300 . no 
C3 C4 1.386(3) . no 
C3 H3 0.9300 . no 
C4 C5 1.385(3) . no 
C4 H4 0.9300 . no 
C5 N1 1.357(3) . no 
C5 C6 1.468(3) . no 
C6 N2 1.332(3) . no 
C6 N4 1.354(3) . no 
C7 N3 1.329(3) . no 
C7 N4 1.355(3) . no 
C7 C8 1.472(3) . no 
C8 N5 1.351(3) . no 
C8 C9 1.383(3) . no 
C9 C10 1.381(3) . no 
C9 H9 0.9300 . no 
C10 C11 1.377(4) . no 
C10 H10 0.9300 . no 
C11 C12 1.379(3) . no 
C11 H11 0.9300 . no 
C12 N5 1.333(3) . no 
C12 H12 0.9300 . no 
C13 O1 1.416(3) . no 
C13 H13A 0.9600 . no 
C13 H13B 0.9600 . no 
C13 H13C 0.9600 . no 
N1 Fe1 2.353(2) . yes 
N2 N3 1.359(2) . no 
N2 Fe1 2.1079(18) . yes 
N3 Fe1 2.1255(19) 5_765 yes 
N5 Fe1 2.3148(19) 5_765 yes 
N6 N7 1.163(3) . no 
N6 Fe1 2.042(2) . yes 
N7 N8 1.158(3) . no 
O1 Fe1 2.1627(16) . yes 
O1 H1C 0.9081 . no 
Fe1 N3 2.1255(19) 5_765 yes 
Fe1 N5 2.3148(19) 5_765 yes 
 
loop_ 
 _geom_angle_atom_site_label_1 
 _geom_angle_atom_site_label_2 
 _geom_angle_atom_site_label_3 
 _geom_angle 
 _geom_angle_site_symmetry_1 
 _geom_angle_site_symmetry_3 
 _geom_angle_publ_flag 
N1 C1 C2 123.6(2) . . no 
N1 C1 H1 118.2 . . no 
C2 C1 H1 118.2 . . no 
C3 C2 C1 118.7(2) . . no 
C3 C2 H2 120.7 . . no 
C1 C2 H2 120.7 . . no 
C2 C3 C4 119.0(2) . . no 
C2 C3 H3 120.5 . . no 
C4 C3 H3 120.5 . . no 
C5 C4 C3 118.8(2) . . no 
C5 C4 H4 120.6 . . no 
C3 C4 H4 120.6 . . no 
N1 C5 C4 122.4(2) . . no 
N1 C5 C6 113.61(19) . . no 
C4 C5 C6 124.0(2) . . no 
N2 C6 N4 113.08(19) . . no 
N2 C6 C5 117.96(19) . . no 
N4 C6 C5 128.96(19) . . no 
N3 C7 N4 113.10(19) . . no 
N3 C7 C8 118.00(19) . . no 
N4 C7 C8 128.88(19) . . no 
N5 C8 C9 122.7(2) . . no 
N5 C8 C7 113.73(19) . . no 
C9 C8 C7 123.6(2) . . no 
C10 C9 C8 118.8(2) . . no 
C10 C9 H9 120.6 . . no 
C8 C9 H9 120.6 . . no 
C11 C10 C9 118.7(2) . . no 
C11 C10 H10 120.6 . . no 
C9 C10 H10 120.6 . . no 
C10 C11 C12 119.2(2) . . no 
C10 C11 H11 120.4 . . no 
C12 C11 H11 120.4 . . no 
N5 C12 C11 123.1(2) . . no 
N5 C12 H12 118.5 . . no 
C11 C12 H12 118.5 . . no 
O1 C13 H13A 109.5 . . no
O1 C13 H13B 109.5 . . no
H13A C13 H13B 109.5 . . no 
O1 C13 H13C 109.5 . . no 
H13A C13 H13C 109.5 . . no 
H13B C13 H13C 109.5 . . no 
C1 N1 C5 117.6(2) . . no 
C1 N1 Fe1 128.05(16) . . yes 
C5 N1 Fe1 114.16(14) . . yes 
C6 N2 N3 106.04(17) . . no 
C6 N2 Fe1 121.26(15) . . yes 
N3 N2 Fe1 132.21(14) . . yes 
C7 N3 N2 106.21(17) . . no 
C7 N3 Fe1 120.15(15) . 5_765 yes 
N2 N3 Fe1 133.57(14) . 5_765 yes 
C6 N4 C7 101.56(17) . . no 
C12 N5 C8 117.5(2) . . no 
C12 N5 Fe1 127.42(16) . 5_765 yes 
C8 N5 Fe1 115.10(14) . 5_765 yes 
N7 N6 Fe1 137.1(2) . . yes 
N8 N7 N6 176.8(3) . . no 
C13 O1 Fe1 127.40(15) . . yes 
C13 O1 H1C 107.0 . . no 
Fe1 O1 H1C 124.9 . . yes 
N6 Fe1 N2 100.47(9) . . yes 
N6 Fe1 N3 103.27(9) . 5_765 yes 
N2 Fe1 N3 93.54(7) . 5_765 yes 
N6 Fe1 O1 161.95(9) . . yes 
N2 Fe1 O1 90.35(7) . . yes 
N3 Fe1 O1 90.31(7) 5_765 . yes
N6 Fe1 N5 90.76(9) . 5_765 yes 
N2 Fe1 N5 164.16(7) . 5_765 yes 
N3 Fe1 N5 72.87(7) 5_765 5_765 yes 
O1 Fe1 N5 81.83(6) . 5_765 yes 
N6 Fe1 N1 86.65(9) . . yes 
N2 Fe1 N1 72.25(7) . . yes 
N3 Fe1 N1 164.12(7) 5_765 . yes 
O1 Fe1 N1 82.92(7) . . yes 
N5 Fe1 N1 119.97(7) 5_765 . yes
 
loop_ 
 _geom_torsion_atom_site_label_1 
 _geom_torsion_atom_site_label_2 
 _geom_torsion_atom_site_label_3 
 _geom_torsion_atom_site_label_4 
 _geom_torsion 
 _geom_torsion_site_symmetry_1 
 _geom_torsion_site_symmetry_2 
 _geom_torsion_site_symmetry_3 
 _geom_torsion_site_symmetry_4 
 _geom_torsion_publ_flag 
N1 C1 C2 C3 -1.1(4) . . . . ? 
C1 C2 C3 C4 1.3(4) . . . . ? 
C2 C3 C4 C5 -0.2(4) . . . . ? 
C3 C4 C5 N1 -1.1(4) . . . . ? 
C3 C4 C5 C6 178.9(2) . . . . ? 
N1 C5 C6 N2 0.3(3) . . . . ? 
C4 C5 C6 N2 -179.8(2) . . . . ? 
N1 C5 C6 N4 -179.6(2) . . . . ? 
C4 C5 C6 N4 0.4(4) . . . . ? 
N3 C7 C8 N5 3.8(3) . . . . ? 
N4 C7 C8 N5 -177.9(2) . . . . ? 
N3 C7 C8 C9 -175.8(2) . . . . ? 
N4 C7 C8 C9 2.6(4) . . . . ? 
N5 C8 C9 C10 0.6(4) . . . . ? 
C7 C8 C9 C10 -179.8(2) . . . . ? 
C8 C9 C10 C11 1.1(4) . . . . ? 
C9 C10 C11 C12 -1.6(4) . . . . ? 
C10 C11 C12 N5 0.5(4) . . . . ? 
C2 C1 N1 C5 -0.2(4) . . . . ? 
C2 C1 N1 Fe1 174.44(18) . . . . ? 
C4 C5 N1 C1 1.3(3) . . . . ? 
C6 C5 N1 C1 -178.74(19) . . . . ? 
C4 C5 N1 Fe1 -174.05(18) . . . . ? 
C6 C5 N1 Fe1 5.9(2) . . . . ? 
N4 C6 N2 N3 -0.5(3) . . . . ? 
C5 C6 N2 N3 179.60(19) . . . . ? 
N4 C6 N2 Fe1 172.37(14) . . . . ? 
C5 C6 N2 Fe1 -7.5(3) . . . . ? 
N4 C7 N3 N2 -0.6(3) . . . . ? 
C8 C7 N3 N2 177.95(19) . . . . ? 
N4 C7 N3 Fe1 176.72(15) . . . 5_765 ? 
C8 C7 N3 Fe1 -4.7(3) . . . 5_765 ? 
C6 N2 N3 C7 0.7(2) . . . . ? 
Fe1 N2 N3 C7 -171.11(16) . . . . ? 
C6 N2 N3 Fe1 -176.17(17) . . . 5_765 ? 
Fe1 N2 N3 Fe1 12.0(3) . . . 5_765 ? 
N2 C6 N4 C7 0.1(3) . . . . ? 
C5 C6 N4 C7 180.0(2) . . . . ? 
N3 C7 N4 C6 0.3(3) . . . . ? 
C8 C7 N4 C6 -178.1(2) . . . . ? 
C11 C12 N5 C8 1.2(4) . . . . ? 
C11 C12 N5 Fe1 -178.8(2) . . . 5_765 ? 
C9 C8 N5 C12 -1.7(4) . . . . ? 
C7 C8 N5 C12 178.7(2) . . . . ? 
C9 C8 N5 Fe1 178.28(19) . . . 5_765 ? 
C7 C8 N5 Fe1 -1.3(2) . . . 5_765 ? 
Fe1 N6 N7 N8 -177(100) . . . . ? 
N7 N6 Fe1 N2 -67.5(3) . . . . ? 
N7 N6 Fe1 N3 28.7(3) . . . 5_765 ? 
N7 N6 Fe1 O1 166.5(2) . . . . ? 
N7 N6 Fe1 N5 101.2(3) . . . 5_765 ? 
N7 N6 Fe1 N1 -138.8(3) . . . . ? 
C6 N2 Fe1 N6 -75.27(19) . . . . ? 
N3 N2 Fe1 N6 95.5(2) . . . . ? 
C6 N2 Fe1 N3 -179.47(18) . . . 5_765 ? 
N3 N2 Fe1 N3 -8.7(2) . . . 5_765 ? 
C6 N2 Fe1 O1 90.20(18) . . . . ? 
N3 N2 Fe1 O1 -99.0(2) . . . . ? 
C6 N2 Fe1 N5 150.2(2) . . . 5_765 ? 
N3 N2 Fe1 N5 -39.0(4) . . . 5_765 ? 
C6 N2 Fe1 N1 7.75(17) . . . . ? 
N3 N2 Fe1 N1 178.5(2) . . . . ? 
C13 O1 Fe1 N6 120.7(3) . . . . ? 
C13 O1 Fe1 N2 -6.5(2) . . . . ? 
C13 O1 Fe1 N3 -100.1(2) . . . 5_765 ? 
C13 O1 Fe1 N5 -172.7(2) . . . 5_765 ? 
C13 O1 Fe1 N1 65.5(2) . . . . ? 
C1 N1 Fe1 N6 -79.9(2) . . . . ? 
C5 N1 Fe1 N6 94.93(17) . . . . ? 
C1 N1 Fe1 N2 178.0(2) . . . . ? 
C5 N1 Fe1 N2 -7.19(15) . . . . ? 
C1 N1 Fe1 N3 150.7(2) . . . 5_765 ? 
C5 N1 Fe1 N3 -34.5(3) . . . 5_765 ? 
C1 N1 Fe1 O1 85.4(2) . . . . ? 
C5 N1 Fe1 O1 -99.83(16) . . . . ? 
C1 N1 Fe1 N5 9.1(2) . . . 5_765 ? 
C5 N1 Fe1 N5 -176.13(14) . . . 5_765 ? 
 
loop_ 
 _geom_hbond_atom_site_label_D 
 _geom_hbond_atom_site_label_H 
 _geom_hbond_atom_site_label_A 
 _geom_hbond_distance_DH 
 _geom_hbond_distance_HA 
 _geom_hbond_distance_DA 
 _geom_hbond_angle_DHA 
 _geom_hbond_site_symmetry_A 
O1 H1C N4  0.91 1.80 2.707(2) 173.5 4 
 
_diffrn_measured_fraction_theta_max    0.998 
_diffrn_reflns_theta_full              28.36 
_diffrn_measured_fraction_theta_full   0.998 
_refine_diff_density_max    0.295 
_refine_diff_density_min   -0.376 
_refine_diff_density_rms    0.062



