data_global

# publcif _publ_body_label loop start

# publcif _publ_body_label loop end
#==============================================================================

# PROCESSING SUMMARY (IUCr Office Use Only)

_journal_date_recd_electronic     2012-07-25
_journal_date_to_coeditor         ?
_journal_date_from_coeditor       2012-08-25
_journal_date_accepted            2012-08-25
_journal_date_printers_first      2012-08-28
_journal_date_printers_final      ?
_journal_date_proofs_out          2012-08-28
_journal_date_proofs_in           ?
_journal_coeditor_name            ?
_journal_coeditor_code            YY0002
_journal_coeditor_notes
?
_journal_paper_category          FI
_journal_techeditor_code          C123682
_iucr_compatibility_tag          ACTA95
_journal_techeditor_notes  
;
;
_journal_coden_ASTM               ACSCEE
_journal_name_full                'Acta Crystallographica, Section C'
_journal_year                     2012
_journal_volume                   68
_journal_issue                    10
_journal_page_first               o2855
_journal_page_last                o2856
_journal_suppl_publ_number        ?
_journal_suppl_publ_pages         ?

#==============================================================================


_audit_update_record
;
2012-07-21 # Formatted by publCIF

2012-07-25 # Formatted by IUCr publCIF system

2012-10-12
# IUCr duplication query:
[[This is a duplication report for article xx0000.

Does this work.]]
;




#==============================================================================


# SUBMISSION DETAILS

_publ_contact_author_name            
'El Firdoussi, Larbi'   
_publ_contact_author_address            
;
Equipe de Chimie de Coordination
Facult\'e des Sciences Semlalia
BP 2390
Marrakech
Morocco
;

_publ_contact_author_email          lafirdoussi@hotmail.com
#helen.stoeckli-evans@unine.ch
_publ_contact_author_fax             ?
_publ_contact_author_phone           ?

_publ_contact_letter
;
Please consider this CIF for publication. I certify that this contibution is the
original work of those listed as authors; that it has not been published
before (in any language or medium) and is not being considered for publication
elsewhere; that all authors concur with and are aware of the submission; that
all workers involved in the study are listed as authors or given proper credit
in the acknowledgements; that I have obtained permission for and acknowledged
the source of any excerpts from other copyright works; and that to the best of
my knowledge the paper contains no statements which are libellous, unlawful or
in any way actionable. All coauthors have made significant scientific
contributions to the work reported, including the ideas and their execution,
and share responsibility and accountability for the results.
;
   
_publ_requested_journal           'Acta Crystallographica E'
_publ_requested_category          EO

#==============================================================================

# TITLE AND AUTHOR LIST

_publ_section_title
;
(2<i>Z</i>,2'<i>Z</i>)-Diethyl
3,3'-[butane-1,4-diylbis(azanediyl)]bis(but-2-enoate)
[[This is a duplication report for article xx0000.

Does this work.]]
;
 

loop_
_publ_author_name
_publ_author_address
_publ_author_footnote
_publ_author_email
'Harrad, Mohamed Anouar'
;
Equipe de Chimie de Coordination, Facult\'e des Sciences Semlalia, BP 2390
Marrakech, 
Morocco
;
.
.

'Boualy, Brahim'
;
Equipe de Chimie de Coordination, Facult\'e des Sciences Semlalia, BP 2390
Marrakech, 
Morocco
;
.
b.boualy@yahoo.fr 

'Ali, Mustapha Ait'
;
Equipe de Chimie de Coordination, Facult\'e des Sciences Semlalia, BP 2390
Marrakech, 
Morocco
;
.
.

'El Firdoussi, Larbi'
;
Equipe de Chimie de Coordination, Facult\'e des Sciences Semlalia, BP 2390
Marrakech, 
Morocco
;
.
lafirdoussi@hotmail.com

'Stoeckli-Evans, Helen'
;
Institute of Physics
University of Neuch\^atel
2000 Neuch\^atel
Switzerland
;
.
helen.stoeckli-evans@unine.ch



#==============================================================================

# TEXT

_publ_section_abstract
;
The whole molecule of the title \b-enaminoester, C~16~H~28~N~2~O~4~, is
generated by a crystallographic inversion center, situated at the mid-point of
the central C---C bond of the 1,4-diaminobutane segment. There are two
intramolecular N---H...O hydrogen bonds that generate <i>S</i>(6) ring motifs.
This leads to the <i>Z</i> conformation about the C\\db C bonds [1.3756(17)
\%A]. The molecule is S-shaped with the planar central 1,4-diaminobutane
segment [maximum deviation for non H-atoms = 0.0058(13) \%A] being inclined to
the ethyl butylenonate fragment [C---C---O---C---C\\db C---C; maximum
deviation = 0.0710(12) \%A] by 15.56(10)\%. In the crystal, molecules are
linked <i>via</i> C---H...O interactions, leading to the formation of an
undulating two-dimensional network lying parallel to the <i>bc</i> plane.
;
loop_
_publ_body_label
_publ_body_contents

 
;
Chemical context
; 
;
\b-Enamino esters are useful precursors for the preparation of biologically
active compounds such as \b-amino acids and \g-amino alcohols (Eddington <i>et
al.</i>, 2000; Palmieri & Cimarelli, 1996; Zhang & Hu,
2006). Many synthetic
methods have been developed for the preparation of these compounds (Harrad
<i>et al.</i>, 2010, 2011<i>a</i>,<i>b</i>; Hegde &
Jones, 1993; Lue &
Greenhill, 1997; Katritzky <i>et al.</i>, 2004; Bartoli <i>et
al.</i>, 1995;
Reddy <i>et al.</i>, 2005). As part of our ongoing program focused on
developing new methodologies for the synthesis of \b-enamino compounds, we
report herein on the synthesis and crystal structure of the title compound, a
new \b-di-enamino-di-ester.
;
 
;
Structural commentary
; 
;
The molecular structure of the title molecule is illustrated in Fig. 1. It
possesses a crystallographic inversion center situated at the middle of the
central C7---C7a bond of the 1,4-diaminobutane segment [symmetry code:
(<i>a</i>) = -<i>x</i>, -<i>y</i>, -<i>z</i>]. The bond distances and angles
are normal and similar to those in related compounds (Harrad <i>et al.</i>,
2011<i>a</i>,<i>b</i>; Am\'ezquita-Valencia <i>et al.</i>,
2009). There are
two intramolecular N---H...O hydrogen bonds (Table 1), that generate S(6) ring
motifs (Bernstein <i>et al.</i>, 1995). This leads to the <i>Z</i>
conformation about the C4\\db C5 and C4a\\db C5a bonds (Fig. 1).
;
 
;
Supramolecular features
; 
;
In the crystal, molecules are linked <i>via</i> C---H...O interactions leading
to the formation of an undulating two-dimensional network that lies parallel
to the <i>bc</i> plane (Table 1 and Fig. 2).
;
_publ_section_comment
;

;

_publ_section_related_literature 
;
For general background to the use of \b-enamino esters as precursors in organic
synthesis, see: Eddington <i>et al.</i> (2000); Palmieri & Cimarelli (1996);
Zhang & Hu (2006). For the synthesis of \b-enamino esters, see: Harrad <i>et
al.</i> (2010); Hegde & Jones (1993); Lue & Greenhill (1997); Katritzky <i>et
al.</i> (2004); Bartoli <i>et al.</i> (1995); Reddy <i>et al.</i> (2005). For
the structure of related compounds, see: Harrad <i>et al.</i>
(2011<i>a</i>,<i>b</i>); Am\'ezquita-Valencia <i>et al.</i> (2009). For
hydrogen-bond motifs, see: Bernstein <i>et al.</i> (1995).
;


_publ_section_acknowledgements  # remove if not required
;
HSE thanks the XRD Application Laboratory of the CSEM, Neuch\^atel, for access
to the X-ray diffraction equipment.
;

_publ_section_references
;
Am\'ezquita-Valencia, M., Hern\'andez-Ortega, S., Su\'arez-Ortiz, G. A.,
Toscano, R. A. & Cabrera, A. (2009). <i>Acta Cryst.</i> E<b>65</b>, o2728.

Bartoli, G., Cimarelli, C., Dalpozzo, R. & Palmieri, G. (1995).
<i>Tetrahedron</i>, <b>51</b>, 8613--8622.

Bernstein, J., Davis, R. E., Shimoni, L. & Chang, N.-L. (1995). <i>Angew. Chem.
Int. Ed. Engl.</i> <b>34</b>, 1555--1573.

Eddington, N. D., Cox, D. S., Roberts, R. R., Stables, J. P., Powell, C. B. &
Scott, K. R. (2000). <i>Curr. Med. Chem.</i> <b>7</b>, 417--436.

Harrad, M. A., Boualy, B., Ali, M. A., Firdoussi, L. E. & Rizzoli, C.
(2011<i>a</i>). <i>Acta Cryst.</i> E<b>67</b>, o1269--o1270.

Harrad, M. A., Boualy, B., Oudahmane, A., Avignant, D. & Rizzoli, C.
(2011<i>b</i>). <i>Acta Cryst.</i> E<b>67</b>, o1818.

Harrad, M. A., Outtouch, R., Ait Ali, M., El Firdoussi, L., Karim, A. &
Roucoux, A. (2010). <i>Catal. Commun.</i> <b>11</b>, 442--446.

Hegde, S. G. & Jones, C. R. (1993). <i>J. Heterocycl. Chem.</i> <b>30</b>,
1501--1508.

Katritzky, A. R., Hayden, A. E., Kirichenko, K., Pelphrey, P. & Ji, J. (2004).
<i>J. Org. Chem.</i> <b>69</b>, 5108--5111.

Lue, P. & Greenhill, J. V. (1997). <i>Adv. Heterocycl. Chem.</i> <b>67</b>,
207--343.

Macrae, C. F., Bruno, I. J., Chisholm, J. A., Edgington, P. R., McCabe, P.,
Pidcock, E., Rodriguez-Monge, L., Taylor, R., van de Streek, J. & Wood, P. A.
(2008). <i>J. Appl. Cryst.</i> <b>41</b>, 466--470.

Palmieri, G. & Cimarelli, C. (1996). <i>J. Org. Chem.</i> <b>61</b>,
5557--5563.

Reddy, D. S., Rajale, T. V., Shivakumar, R. K. & Iqbal, J. (2005).
<i>Tetrahedron Lett.</i> <b>46</b>, 979--982.

Sheldrick, G. M. (2008). <i>Acta Cryst.</i> A<b>64</b>, 112--122.

Spek, A. L. (2009). <i>Acta Cryst.</i> D<b>65</b>, 148--155.

Stoe & Cie (2009). <i>X-AREA</i> and <i>X-RED32</i>. Stoe & Cie GmbH,
Darmstadt, Germany.

Westrip, S. P. (2010). <i>J. Appl. Cryst.</i> <b>43</b>, 920--925.

Zhang, Z.-H. & Hu, J. Y. (2006). <i>J. Braz. Chem. Soc.</i> <b>17</b>,
1447--1451.
;


_publ_section_figure_captions
;
Fig. 1. The molecular structure of the title molecule, showing the atom
numbering. The displacement ellipsoids are drawn at the 50% probability level
[symmetry code: (<i>a</i>) = -<i>x</i>, -<i>y</i>, -<i>z</i>].

Fig. 2. A view along the <i>a</i> axis of the crystal packing of the title
compound, showing the N---H...O and C---H...O hydrogen bonds as dashed cyan
lines.
;


_publ_section_exptl_prep
;
The title compound was prepared by condensation of ethyl 3-oxobutanoate with
1,4-diaminobutane using a catalytic amount of Ca(CF~3~COO)~2~ under
solvent-free conditions according to the procedure we have previously
described (Harrad <i>et al.</i>, 2010). The \b-enaminoester was
typically
characterized by ^1^H, ^13^C NMR, IR and mass spectroscopy. The characteristic
broad singlet for the amine proton appears at 8.50 p.p.m., the singlet
corresponding to the proton of the double bond at 4.29 p.p.m. The triplet and
the quartet for the ethyl moiety appeared at 1.11 and 3.98 p.p.m.,
respectively.
;

_publ_section_exptl_refinement
;
All the H-atoms were located in a difference Fourier map. In the final cycles
of refinement the NH H-atom was freely refined, while the C-bound H-atoms were
included in calculated positions and treated as riding atoms: C---H = 0.95,
0.99 and 0.98 \%A for CH(allyl), CH~2~ and CH~3~, respectively, with
<i>U</i>~iso~(H) = k \\times <i>U</i>~eq~(C), where k = 1.5 for CH~3~ H-atoms,
and = 1.2 for all other H-atoms.
;
#==============================================================================

data_pete
 
_audit_creation_method            SHELXL-97 
_chemical_name_systematic 
;
(2<i>Z</i>,2'<i>Z</i>)-Diethyl
3,3'-[butane-1,4-diylbis(azanediyl)]bis(but-2-enoate)
; 
_chemical_name_common             ? 
_chemical_melting_point           ? 
_chemical_formula_moiety            'C16 H28 N2 O4' 
_chemical_formula_sum 
 'C16 H28 N2 O4' 
_chemical_formula_weight          312.40 
_chemical_formula_iupac             'C16 H28 N2 O4'  

loop_ 
 _atom_type_symbol 
 _atom_type_description 
 _atom_type_scat_dispersion_real 
 _atom_type_scat_dispersion_imag 
 _atom_type_scat_source 
 'C'  'C'   0.0033   0.0016 
 'International Tables Vol C Tables 4.2.6.8 and 6.1.1.4' 
 'H'  'H'   0.0000   0.0000 
 'International Tables Vol C Tables 4.2.6.8 and 6.1.1.4' 
 'N'  'N'   0.0061   0.0033 
 'International Tables Vol C Tables 4.2.6.8 and 6.1.1.4' 
 'O'  'O'   0.0106   0.0060 
 'International Tables Vol C Tables 4.2.6.8 and 6.1.1.4' 
 
_symmetry_cell_setting            monoclinic 
_symmetry_space_group_name_H-M    'P 21/c'
_symmetry_space_group_name_Hall   '-P 2ybc'

loop_
_symmetry_equiv_pos_site_id
_symmetry_equiv_pos_as_xyz
   1 x,y,z
   2 -x,1/2+y,1/2-z
   3 -x,-y,-z
   4 x,1/2-y,1/2+z
 
_cell_length_a                    5.7624(5) 
_cell_length_b                    13.1329(8) 
_cell_length_c                    11.7601(9) 
_cell_angle_alpha                 90.00 
_cell_angle_beta                  98.547(6) 
_cell_angle_gamma                 90.00 
_cell_volume                      880.09(12) 
_cell_formula_units_Z             2 
_cell_measurement_temperature     133(2) 
_cell_measurement_reflns_used    8450
_cell_measurement_theta_min      2.34
_cell_measurement_theta_max      26.17
 
_exptl_crystal_description       'block'
_exptl_crystal_colour            'colourless'
_exptl_crystal_size_max          0.45
_exptl_crystal_size_mid          0.40
_exptl_crystal_size_min          0.30
_exptl_crystal_density_meas       ? 
_exptl_crystal_density_diffrn     1.179 
_exptl_crystal_density_method     'not measured' 
_exptl_crystal_F_000              340 
_exptl_absorpt_coefficient_mu     0.084 
_exptl_absorpt_correction_type    multi-scan
_exptl_absorpt_correction_T_min   0.6794
_exptl_absorpt_correction_T_max   1.0000
_exptl_absorpt_process_details    
'(MULscanABS in PLATON; Spek, 2009)'
 
_exptl_special_details 
;
In a typical experiment 1.0 mmol of Ethyl acetoacetate, 0.5 mmol of
1,4-diaminobutane and 0.1 mmol of Ca(CF~3~COO)~2~ were stirred at room
temperature for 30 min under solvent free conditions. At the end of the
reaction, 10 ml of distilled water was added to the residue and it was
extracted with diethyl ether (3 \\times 25 ml). The organic layer was dried
over Na~2~SO~4~. The solvent was removed under reduced pressure, and pure
\b-enaminone was obtained by column chromatography over silica gel using
hexane/ethyl acetate (5:95, <i>v</i>/<i>v</i>) as colourless block-like
crystals on slow evaporation of the solvents [Yield 78%; <i>M</i>.p.: 435 -
437 K]. Spectroscopic data for the title compound: FT---IR (KBr, cm^-1^):
1655, 1607. ^1^H RMN (300 MHz, CDCl~3~) = 1.11 (t, J = 7.2 Hz, 6H,
CH~3~---CH~2~---O), 1.56 (m, 4H, CH~2~---CH~2~---NH), 1.81 (s, 6H,
CH~3~---C\\db CH), 3.16 (m, 4H, CH~2~---CH~2~---NH), 3.98 (q, J = 7.2 Hz, 4H,
CH~3~---CH~2~---O), 4.29 (s, 2H, CH~3~---C\\db CH), 8.50 (br s, 1H, NH); ^13^C
RMN (75 MHz, CDCl~3~) = 169.99 (--C\\db O), 160.78 (--C), 82.50 (--CH), 57.72
(O---CH~2~), 42.52 (CH~2~---NH), 27.84(CH~2~---C), 18.92 (CH~3~---C), 14.48
(CH~3~---C---O). MS (EI, 70 eV): m/<i>z</i> = 312 [<i>M</i>+].
; 
 
_diffrn_ambient_temperature       133(2) 

_diffrn_radiation_wavelength      0.71073 
_diffrn_radiation_type            MoK\a 
_diffrn_radiation_source          'fine-focus sealed tube' 
_diffrn_radiation_monochromator    'plane graphite'
_diffrn_measurement_device         '2-circle goniometer'
_diffrn_measurement_device_type    'Stoe IPDS 2'
_diffrn_detector                   'image plate (34 cm diameter)'
_diffrn_detector_type              'STOE'
_diffrn_source           'sealed X-ray tube, 12 x 0.4 mm long-fine focus'
_diffrn_measurement_method        '\f + \w scans'
_diffrn_detector_area_resol_mean  ?
_diffrn_standards_number          0
_diffrn_standards_interval_time   ?
_diffrn_standards_decay_%         0
_diffrn_reflns_number             9379 
_diffrn_reflns_av_R_equivalents   0.0523 
_diffrn_reflns_av_sigmaI/netI     0.0282 
_diffrn_reflns_limit_h_min        -7 
_diffrn_reflns_limit_h_max        7 
_diffrn_reflns_limit_k_min        -14 
_diffrn_reflns_limit_k_max        15 
_diffrn_reflns_limit_l_min        -14 
_diffrn_reflns_limit_l_max        14 
_diffrn_reflns_theta_min          2.34 
_diffrn_reflns_theta_max          25.68 
_reflns_number_total              1661 
_reflns_number_gt                 1392 
_reflns_threshold_expression      I>2\s(I) 

_computing_data_collection        'X-AREA (Stoe & Cie, 2009)' 
_computing_cell_refinement        'X-AREA (Stoe & Cie, 2009)' 
_computing_data_reduction         'X-RED32 (Stoe & Cie, 2009)' 
_computing_structure_solution     'SHELXS97 (Sheldrick, 2008)' 
_computing_structure_refinement   'SHELXL97 (Sheldrick, 2008)' 
_computing_molecular_graphics     
'PLATON  (Spek, 2009) and Mercury (Macrae <i>et al.</i>, 2008)' 
_computing_publication_material   
;
SHELXL97 (Sheldrick, 2008), PLATON (Spek, 2009) and
publCIF (Westrip, 2010)
;
 
_refine_special_details 
;
The NH H-atom was located in a difference electron-density map and freely
refined. The C-bound H-atoms were included in calculated positions and treated
as riding atoms: C---H = 0.95, 0.99 and 0.98, \%A for CH(allyl), CH~2~ and
CH~3~ H-atoms, respectively, with <i>U</i>~iso~(H) = k \\times
<i>U</i>~eq~(parent C-atom), where k = 1.5 for CH~3~ H-atoms and = 1.2 for
other H atoms.
; 
 
_refine_ls_structure_factor_coef  Fsqd  
_refine_ls_matrix_type            full 
_refine_ls_weighting_scheme       calc  
_refine_ls_weighting_details 
 'calc w=1/[\s^2^(Fo^2^)+(0.0346P)^2^+0.1872P] where P=(Fo^2^+2Fc^2^)/3' 
_atom_sites_solution_primary      direct 
_atom_sites_solution_secondary    difmap 
_atom_sites_solution_hydrogens    geom 
_refine_ls_hydrogen_treatment     mixed 
_refine_ls_extinction_method      'SHELXL97 (Sheldrick, 2008)' 
_refine_ls_extinction_coef        0.015(4) 
_refine_ls_extinction_expression 
 'Fc^*^=kFc[1+0.001xFc^2^\l^3^/sin(2\q)]^-1/4^' 
_refine_ls_number_reflns          1661 
_refine_ls_number_parameters      107 
_refine_ls_number_restraints      0 
_refine_ls_R_factor_all           0.0464 
_refine_ls_R_factor_gt            0.0353 
_refine_ls_wR_factor_ref          0.0810 
_refine_ls_wR_factor_gt           0.0773 
_refine_ls_goodness_of_fit_ref    1.042 
_refine_ls_restrained_S_all       1.042 
_refine_ls_shift/su_max           0.000 
_refine_ls_shift/su_mean          0.000 
 
#===============================================================================
 
# 9. ATOMIC COORDINATES AND DISPLACEMENT PARAMETERS
 
loop_
_atom_site_label
_atom_site_type_symbol
_atom_site_thermal_displace_type
_atom_site_fract_x
_atom_site_fract_y
_atom_site_fract_z
_atom_site_occupancy
_atom_site_U_iso_or_equiv
_atom_site_calc_flag
_atom_site_refinement_flags
 
_atom_site_disorder_assembly
_atom_site_disorder_group
 
O1 O Uani 0.93675(15) 0.33513(7) 0.19771(7) 1.000 0.0277(3) d . . .
O2 O Uani 0.72096(15) 0.23004(7) 0.07166(7) 1.000 0.0282(3) d . . .
N1 N Uani 0.37954(19) 0.12458(8) 0.15569(9) 1.000 0.0252(3) d . . .
C1 C Uani 1.2379(2) 0.44490(11) 0.15191(13) 1.000 0.0358(4) d . . .
C2 C Uani 1.0631(2) 0.36486(10) 0.10551(12) 1.000 0.0312(4) d . . .
C3 C Uani 0.7649(2) 0.26399(9) 0.17015(10) 1.000 0.0231(3) d . . .
C4 C Uani 0.6507(2) 0.23715(9) 0.26565(10) 1.000 0.0237(3) d . . .
C5 C Uani 0.4629(2) 0.17140(9) 0.25516(10) 1.000 0.0231(3) d . . .
C6 C Uani 0.1806(2) 0.05468(10) 0.13799(11) 1.000 0.0274(4) d . . .
C7 C Uani 0.1049(2) 0.03591(10) 0.01049(11) 1.000 0.0277(4) d . . .
C8 C Uani 0.3384(2) 0.15152(11) 0.35620(11) 1.000 0.0299(4) d . . .
H1A H Uiso 1.15460 0.50510 0.17410 1.000 0.0540 c R . .
H1B H Uiso 1.33290 0.46370 0.09260 1.000 0.0540 c R . .
H1C H Uiso 1.34010 0.41820 0.21930 1.000 0.0540 c R . .
H1N H Uiso 0.458(3) 0.1381(11) 0.0988(13) 1.000 0.033(4) d . . .
H2A H Uiso 0.95300 0.39230 0.04010 1.000 0.0370 c R . .
H2B H Uiso 1.14480 0.30530 0.07830 1.000 0.0370 c R . .
H4 H Uiso 0.70620 0.26570 0.33890 1.000 0.0280 c R . .
H6A H Uiso 0.04810 0.08390 0.17190 1.000 0.0330 c R . .
H6B H Uiso 0.22510 -0.01070 0.17720 1.000 0.0330 c R . .
H7A H Uiso 0.23740 0.00610 -0.02300 1.000 0.0330 c R . .
H7B H Uiso 0.06300 0.10160 -0.02860 1.000 0.0330 c R . .
H8A H Uiso 0.32040 0.07790 0.36570 1.000 0.0450 c R . .
H8B H Uiso 0.18330 0.18370 0.34310 1.000 0.0450 c R . .
H8C H Uiso 0.43020 0.17990 0.42580 1.000 0.0450 c R . .
 
loop_
_atom_site_aniso_label
_atom_site_aniso_U_11
_atom_site_aniso_U_22
_atom_site_aniso_U_33
_atom_site_aniso_U_23
_atom_site_aniso_U_13
_atom_site_aniso_U_12
O1 0.0308(5) 0.0273(5) 0.0257(5) -0.0027(4) 0.0069(4) -0.0067(4)
O2 0.0339(5) 0.0306(5) 0.0198(4) -0.0016(4) 0.0030(4) -0.0040(4)
N1 0.0257(6) 0.0282(6) 0.0215(5) -0.0014(4) 0.0026(4) -0.0047(4)
C1 0.0339(7) 0.0320(8) 0.0439(8) -0.0005(6) 0.0133(6) -0.0050(6)
C2 0.0361(7) 0.0287(7) 0.0305(7) 0.0022(5) 0.0110(6) -0.0037(6)
C3 0.0240(6) 0.0198(6) 0.0242(6) -0.0004(5) -0.0002(5) 0.0023(5)
C4 0.0262(6) 0.0251(6) 0.0191(6) -0.0028(5) 0.0008(5) -0.0005(5)
C5 0.0242(6) 0.0232(6) 0.0211(6) 0.0007(5) 0.0006(5) 0.0044(5)
C6 0.0270(6) 0.0273(7) 0.0266(7) 0.0000(5) -0.0002(5) -0.0049(5)
C7 0.0280(6) 0.0275(7) 0.0269(7) -0.0034(5) 0.0016(5) -0.0034(5)
C8 0.0277(7) 0.0375(7) 0.0242(7) -0.0004(5) 0.0033(5) -0.0025(6)
 
#===============================================================================
 
# 10. MOLECULAR GEOMETRY
 
_geom_special_details
;
Bond distances, angles <i>etc</i>. have been calculated using the rounded
fractional coordinates. All su's are estimated from the variances of the
(full) variance-covariance matrix. The cell e.s.d.'s are taken into account in
the estimation of distances, angles and torsion angles
;
 
loop_
_geom_bond_atom_site_label_1
_geom_bond_atom_site_label_2
_geom_bond_distance
_geom_bond_site_symmetry_1
_geom_bond_site_symmetry_2
_geom_bond_publ_flag
 O1      C2       1.4467(16)                     .       .                   no
 O1      C3       1.3650(15)                     .       .                   no
 O2      C3       1.2318(14)                     .       .                   no
 N1      C5       1.3454(16)                     .       .                   no
 N1      C6       1.4592(16)                     .       .                   no
 N1      H1N       0.880(16)                     .       .                   no
 C1      C2       1.5013(19)                     .       .                   no
 C3      C4       1.4277(17)                     .       .                   no
 C4      C5       1.3756(17)                     .       .                   no
 C5      C8       1.4994(17)                     .       .                   no
 C6      C7       1.5182(18)                     .       .                   no
 C7      C7       1.5243(17)                     .     3_555                 no
 C1      H1A          0.9800                     .       .                   no
 C1      H1B          0.9800                     .       .                   no
 C1      H1C          0.9800                     .       .                   no
 C2      H2A          0.9900                     .       .                   no
 C2      H2B          0.9900                     .       .                   no
 C4      H4           0.9500                     .       .                   no
 C6      H6A          0.9900                     .       .                   no
 C6      H6B          0.9900                     .       .                   no
 C7      H7A          0.9900                     .       .                   no
 C7      H7B          0.9900                     .       .                   no
 C8      H8A          0.9800                     .       .                   no
 C8      H8B          0.9800                     .       .                   no
 C8      H8C          0.9800                     .       .                   no
 
loop_
_geom_angle_atom_site_label_1
_geom_angle_atom_site_label_2
_geom_angle_atom_site_label_3
_geom_angle
_geom_angle_site_symmetry_1
_geom_angle_site_symmetry_2
_geom_angle_site_symmetry_3
_geom_angle_publ_flag
 C2      O1      C3        115.78(9)             .       .       .           no
 C5      N1      C6       125.66(11)             .       .       .           no
 C5      N1      H1N       114.3(10)             .       .       .           no
 C6      N1      H1N       120.0(10)             .       .       .           no
 O1      C2      C1       107.56(11)             .       .       .           no
 O1      C3      C4       112.65(10)             .       .       .           no
 O1      C3      O2       120.77(10)             .       .       .           no
 O2      C3      C4       126.58(11)             .       .       .           no
 C3      C4      C5       122.20(11)             .       .       .           no
 N1      C5      C8       117.28(11)             .       .       .           no
 N1      C5      C4       122.64(11)             .       .       .           no
 C4      C5      C8       120.06(11)             .       .       .           no
 N1      C6      C7       110.33(10)             .       .       .           no
 C6      C7      C7       111.40(10)             .       .     3_555         no
 C2      C1      H1A          109.00             .       .       .           no
 C2      C1      H1B          109.00             .       .       .           no
 C2      C1      H1C          109.00             .       .       .           no
 H1A     C1      H1B          109.00             .       .       .           no
 H1A     C1      H1C          109.00             .       .       .           no
 H1B     C1      H1C          109.00             .       .       .           no
 O1      C2      H2A          110.00             .       .       .           no
 O1      C2      H2B          110.00             .       .       .           no
 C1      C2      H2A          110.00             .       .       .           no
 C1      C2      H2B          110.00             .       .       .           no
 H2A     C2      H2B          108.00             .       .       .           no
 C3      C4      H4           119.00             .       .       .           no
 C5      C4      H4           119.00             .       .       .           no
 N1      C6      H6A          110.00             .       .       .           no
 N1      C6      H6B          110.00             .       .       .           no
 C7      C6      H6A          110.00             .       .       .           no
 C7      C6      H6B          110.00             .       .       .           no
 H6A     C6      H6B          108.00             .       .       .           no
 C6      C7      H7A          109.00             .       .       .           no
 C6      C7      H7B          109.00             .       .       .           no
 H7A     C7      H7B          108.00             .       .       .           no
 C7      C7      H7A          109.00           3_555     .       .           no
 C7      C7      H7B          109.00           3_555     .       .           no
 C5      C8      H8A          109.00             .       .       .           no
 C5      C8      H8B          109.00             .       .       .           no
 C5      C8      H8C          109.00             .       .       .           no
 H8A     C8      H8B          109.00             .       .       .           no
 H8A     C8      H8C          109.00             .       .       .           no
 H8B     C8      H8C          110.00             .       .       .           no
 
loop_
_geom_torsion_atom_site_label_1
_geom_torsion_atom_site_label_2
_geom_torsion_atom_site_label_3
_geom_torsion_atom_site_label_4
_geom_torsion
_geom_torsion_site_symmetry_1
_geom_torsion_site_symmetry_2
_geom_torsion_site_symmetry_3
_geom_torsion_site_symmetry_4
_geom_torsion_publ_flag
 C3      O1      C2      C1       178.47(10)     .       .       .       .   no
 C2      O1      C3      O2        -1.34(16)     .       .       .       .   no
 C2      O1      C3      C4       179.00(10)     .       .       .       .   no
 C6      N1      C5      C4      -179.53(11)     .       .       .       .   no
 C6      N1      C5      C8        -1.09(18)     .       .       .       .   no
 C5      N1      C6      C7       167.36(11)     .       .       .       .   no
 O1      C3      C4      C5       176.01(11)     .       .       .       .   no
 O2      C3      C4      C5          -3.6(2)     .       .       .       .   no
 C3      C4      C5      N1         2.77(19)     .       .       .       .   no
 C3      C4      C5      C8      -175.62(11)     .       .       .       .   no
 N1      C6      C7      C7      -179.28(10)     .       .       .     3_555 no
 C6      C7      C7      C6       179.97(16)     .       .     3_555   3_555 no
 
loop_
_geom_hbond_atom_site_label_D
_geom_hbond_atom_site_label_H
_geom_hbond_atom_site_label_A
_geom_hbond_distance_DH
_geom_hbond_distance_HA
_geom_hbond_distance_DA
_geom_hbond_angle_DHA
_geom_hbond_site_symmetry_A
_geom_hbond_publ_flag
#
#D   H   A   D - H  H...A   D...A    D - H...A  symm(A)
#
N1      H1N     O2     0.880(16)  2.000(16) 2.7099(14)  136.9(13)     .   yes
C8      H8C     O2     0.98       2.51      3.4697(16)  167         4_555 yes


 
_diffrn_measured_fraction_theta_max    0.996 
_diffrn_reflns_theta_full              25.00 
_diffrn_measured_fraction_theta_full   0.999 
_refine_diff_density_max    0.150 
_refine_diff_density_min   -0.141 
_refine_diff_density_rms    0.029





data_simon
 
_audit_creation_method            SHELXL-97 
_chemical_name_systematic 
;
(2<i>Z</i>,2'<i>Z</i>)-Diethyl
3,3'-[butane-1,4-diylbis(azanediyl)]bis(but-2-enoate)
; 
_chemical_name_common             ? 
_chemical_melting_point           ? 
_chemical_formula_moiety            'C16 H28 N2 O4' 
_chemical_formula_sum 
 'C16 H28 N2 O4' 
_chemical_formula_weight          312.40 
_chemical_formula_iupac             'C16 H28 N2 O4'  

loop_ 
 _atom_type_symbol 
 _atom_type_description 
 _atom_type_scat_dispersion_real 
 _atom_type_scat_dispersion_imag 
 _atom_type_scat_source 
 'C'  'C'   0.0033   0.0016 
 'International Tables Vol C Tables 4.2.6.8 and 6.1.1.4' 
 'H'  'H'   0.0000   0.0000 
 'International Tables Vol C Tables 4.2.6.8 and 6.1.1.4' 
 'N'  'N'   0.0061   0.0033 
 'International Tables Vol C Tables 4.2.6.8 and 6.1.1.4' 
 'O'  'O'   0.0106   0.0060 
 'International Tables Vol C Tables 4.2.6.8 and 6.1.1.4' 
 
_symmetry_cell_setting            monoclinic 
_symmetry_space_group_name_H-M    'P 21/c'
_symmetry_space_group_name_Hall   '-P 2ybc'

loop_
_symmetry_equiv_pos_site_id
_symmetry_equiv_pos_as_xyz
   1 x,y,z
   2 -x,1/2+y,1/2-z
   3 -x,-y,-z
   4 x,1/2-y,1/2+z
 
_cell_length_a                    5.7624(5) 
_cell_length_b                    13.1329(8) 
_cell_length_c                    11.7601(9) 
_cell_angle_alpha                 90.00 
_cell_angle_beta                  98.547(6) 
_cell_angle_gamma                 90.00 
_cell_volume                      880.09(12) 
_cell_formula_units_Z             2 
_cell_measurement_temperature     133(2) 
_cell_measurement_reflns_used    8450
_cell_measurement_theta_min      2.34
_cell_measurement_theta_max      26.17
 
_exptl_crystal_description       'block'
_exptl_crystal_colour            'colourless'
_exptl_crystal_size_max          0.45
_exptl_crystal_size_mid          0.40
_exptl_crystal_size_min          0.30
_exptl_crystal_density_meas       ? 
_exptl_crystal_density_diffrn     1.179 
_exptl_crystal_density_method     'not measured' 
_exptl_crystal_F_000              340 
_exptl_absorpt_coefficient_mu     0.084 
_exptl_absorpt_correction_type    multi-scan
_exptl_absorpt_correction_T_min   0.6794
_exptl_absorpt_correction_T_max   1.0000
_exptl_absorpt_process_details    
'(MULscanABS in PLATON; Spek, 2009)'
 
_exptl_special_details 
;
In a typical experiment 1.0 mmol of Ethyl acetoacetate, 0.5 mmol of
1,4-diaminobutane and 0.1 mmol of Ca(CF~3~COO)~2~ were stirred at room
temperature for 30 min under solvent free conditions. At the end of the
reaction, 10 ml of distilled water was added to the residue and it was
extracted with diethyl ether (3 \\times 25 ml). The organic layer was dried
over Na~2~SO~4~. The solvent was removed under reduced pressure, and pure
\b-enaminone was obtained by column chromatography over silica gel using
hexane/ethyl acetate (5:95, <i>v</i>/<i>v</i>) as colourless block-like
crystals on slow evaporation of the solvents [Yield 78%; <i>M</i>.p.: 435 -
437 K]. Spectroscopic data for the title compound: FT---IR (KBr, cm^-1^):
1655, 1607. ^1^H RMN (300 MHz, CDCl~3~) = 1.11 (t, J = 7.2 Hz, 6H,
CH~3~---CH~2~---O), 1.56 (m, 4H, CH~2~---CH~2~---NH), 1.81 (s, 6H,
CH~3~---C\\db CH), 3.16 (m, 4H, CH~2~---CH~2~---NH), 3.98 (q, J = 7.2 Hz, 4H,
CH~3~---CH~2~---O), 4.29 (s, 2H, CH~3~---C\\db CH), 8.50 (br s, 1H, NH); ^13^C
RMN (75 MHz, CDCl~3~) = 169.99 (--C\\db O), 160.78 (--C), 82.50 (--CH), 57.72
(O---CH~2~), 42.52 (CH~2~---NH), 27.84(CH~2~---C), 18.92 (CH~3~---C), 14.48
(CH~3~---C---O). MS (EI, 70 eV): m/<i>z</i> = 312 [<i>M</i>+].
; 
 
_diffrn_ambient_temperature       133(2) 

_diffrn_radiation_wavelength      0.71073 
_diffrn_radiation_type            MoK\a 
_diffrn_radiation_source          'fine-focus sealed tube' 
_diffrn_radiation_monochromator    'plane graphite'
_diffrn_measurement_device         '2-circle goniometer'
_diffrn_measurement_device_type    'Stoe IPDS 2'
_diffrn_detector                   'image plate (34 cm diameter)'
_diffrn_detector_type              'STOE'
_diffrn_source           'sealed X-ray tube, 12 x 0.4 mm long-fine focus'
_diffrn_measurement_method        '\f + \w scans'
_diffrn_detector_area_resol_mean  ?
_diffrn_standards_number          0
_diffrn_standards_interval_time   ?
_diffrn_standards_decay_%         0
_diffrn_reflns_number             9379 
_diffrn_reflns_av_R_equivalents   0.0523 
_diffrn_reflns_av_sigmaI/netI     0.0282 
_diffrn_reflns_limit_h_min        -7 
_diffrn_reflns_limit_h_max        7 
_diffrn_reflns_limit_k_min        -14 
_diffrn_reflns_limit_k_max        15 
_diffrn_reflns_limit_l_min        -14 
_diffrn_reflns_limit_l_max        14 
_diffrn_reflns_theta_min          2.34 
_diffrn_reflns_theta_max          25.68 
_reflns_number_total              1661 
_reflns_number_gt                 1392 
_reflns_threshold_expression      I>2\s(I) 

_computing_data_collection        'X-AREA (Stoe & Cie, 2009)' 
_computing_cell_refinement        'X-AREA (Stoe & Cie, 2009)' 
_computing_data_reduction         'X-RED32 (Stoe & Cie, 2009)' 
_computing_structure_solution     'SHELXS97 (Sheldrick, 2008)' 
_computing_structure_refinement   'SHELXL97 (Sheldrick, 2008)' 
_computing_molecular_graphics     
'PLATON  (Spek, 2009) and Mercury (Macrae <i>et al.</i>, 2008)' 
_computing_publication_material   
;
SHELXL97 (Sheldrick, 2008), PLATON (Spek, 2009) and
publCIF (Westrip, 2010)
;
 
_refine_special_details 
;
The NH H-atom was located in a difference electron-density map and freely
refined. The C-bound H-atoms were included in calculated positions and treated
as riding atoms: C---H = 0.95, 0.99 and 0.98, \%A for CH(allyl), CH~2~ and
CH~3~ H-atoms, respectively, with <i>U</i>~iso~(H) = k \\times
<i>U</i>~eq~(parent C-atom), where k = 1.5 for CH~3~ H-atoms and = 1.2 for
other H atoms.
; 
 
_refine_ls_structure_factor_coef  Fsqd  
_refine_ls_matrix_type            full 
_refine_ls_weighting_scheme       calc  
_refine_ls_weighting_details 
 'calc w=1/[\s^2^(Fo^2^)+(0.0346P)^2^+0.1872P] where P=(Fo^2^+2Fc^2^)/3' 
_atom_sites_solution_primary      direct 
_atom_sites_solution_secondary    difmap 
_atom_sites_solution_hydrogens    geom 
_refine_ls_hydrogen_treatment     mixed 
_refine_ls_extinction_method      'SHELXL97 (Sheldrick, 2008)' 
_refine_ls_extinction_coef        0.015(4) 
_refine_ls_extinction_expression 
 'Fc^*^=kFc[1+0.001xFc^2^\l^3^/sin(2\q)]^-1/4^' 
_refine_ls_number_reflns          1661 
_refine_ls_number_parameters      107 
_refine_ls_number_restraints      0 
_refine_ls_R_factor_all           0.0464 
_refine_ls_R_factor_gt            0.0353 
_refine_ls_wR_factor_ref          0.0810 
_refine_ls_wR_factor_gt           0.0773 
_refine_ls_goodness_of_fit_ref    1.042 
_refine_ls_restrained_S_all       1.042 
_refine_ls_shift/su_max           0.000 
_refine_ls_shift/su_mean          0.000 
 
#===============================================================================
 
# 9. ATOMIC COORDINATES AND DISPLACEMENT PARAMETERS
 
loop_
_atom_site_label
_atom_site_type_symbol
_atom_site_thermal_displace_type
_atom_site_fract_x
_atom_site_fract_y
_atom_site_fract_z
_atom_site_occupancy
_atom_site_U_iso_or_equiv
_atom_site_calc_flag
_atom_site_refinement_flags
 
_atom_site_disorder_assembly
_atom_site_disorder_group
 
O1 O Uani 0.93675(15) 0.33513(7) 0.19771(7) 1.000 0.0277(3) d . . .
O2 O Uani 0.72096(15) 0.23004(7) 0.07166(7) 1.000 0.0282(3) d . . .
N1 N Uani 0.37954(19) 0.12458(8) 0.15569(9) 1.000 0.0252(3) d . . .
C1 C Uani 1.2379(2) 0.44490(11) 0.15191(13) 1.000 0.0358(4) d . . .
C2 C Uani 1.0631(2) 0.36486(10) 0.10551(12) 1.000 0.0312(4) d . . .
C3 C Uani 0.7649(2) 0.26399(9) 0.17015(10) 1.000 0.0231(3) d . . .
C4 C Uani 0.6507(2) 0.23715(9) 0.26565(10) 1.000 0.0237(3) d . . .
C5 C Uani 0.4629(2) 0.17140(9) 0.25516(10) 1.000 0.0231(3) d . . .
C6 C Uani 0.1806(2) 0.05468(10) 0.13799(11) 1.000 0.0274(4) d . . .
C7 C Uani 0.1049(2) 0.03591(10) 0.01049(11) 1.000 0.0277(4) d . . .
C8 C Uani 0.3384(2) 0.15152(11) 0.35620(11) 1.000 0.0299(4) d . . .
H1A H Uiso 1.15460 0.50510 0.17410 1.000 0.0540 c R . .
H1B H Uiso 1.33290 0.46370 0.09260 1.000 0.0540 c R . .
H1C H Uiso 1.34010 0.41820 0.21930 1.000 0.0540 c R . .
H1N H Uiso 0.458(3) 0.1381(11) 0.0988(13) 1.000 0.033(4) d . . .
H2A H Uiso 0.95300 0.39230 0.04010 1.000 0.0370 c R . .
H2B H Uiso 1.14480 0.30530 0.07830 1.000 0.0370 c R . .
H4 H Uiso 0.70620 0.26570 0.33890 1.000 0.0280 c R . .
H6A H Uiso 0.04810 0.08390 0.17190 1.000 0.0330 c R . .
H6B H Uiso 0.22510 -0.01070 0.17720 1.000 0.0330 c R . .
H7A H Uiso 0.23740 0.00610 -0.02300 1.000 0.0330 c R . .
H7B H Uiso 0.06300 0.10160 -0.02860 1.000 0.0330 c R . .
H8A H Uiso 0.32040 0.07790 0.36570 1.000 0.0450 c R . .
H8B H Uiso 0.18330 0.18370 0.34310 1.000 0.0450 c R . .
H8C H Uiso 0.43020 0.17990 0.42580 1.000 0.0450 c R . .
 
loop_
_atom_site_aniso_label
_atom_site_aniso_U_11
_atom_site_aniso_U_22
_atom_site_aniso_U_33
_atom_site_aniso_U_23
_atom_site_aniso_U_13
_atom_site_aniso_U_12
O1 0.0308(5) 0.0273(5) 0.0257(5) -0.0027(4) 0.0069(4) -0.0067(4)
O2 0.0339(5) 0.0306(5) 0.0198(4) -0.0016(4) 0.0030(4) -0.0040(4)
N1 0.0257(6) 0.0282(6) 0.0215(5) -0.0014(4) 0.0026(4) -0.0047(4)
C1 0.0339(7) 0.0320(8) 0.0439(8) -0.0005(6) 0.0133(6) -0.0050(6)
C2 0.0361(7) 0.0287(7) 0.0305(7) 0.0022(5) 0.0110(6) -0.0037(6)
C3 0.0240(6) 0.0198(6) 0.0242(6) -0.0004(5) -0.0002(5) 0.0023(5)
C4 0.0262(6) 0.0251(6) 0.0191(6) -0.0028(5) 0.0008(5) -0.0005(5)
C5 0.0242(6) 0.0232(6) 0.0211(6) 0.0007(5) 0.0006(5) 0.0044(5)
C6 0.0270(6) 0.0273(7) 0.0266(7) 0.0000(5) -0.0002(5) -0.0049(5)
C7 0.0280(6) 0.0275(7) 0.0269(7) -0.0034(5) 0.0016(5) -0.0034(5)
C8 0.0277(7) 0.0375(7) 0.0242(7) -0.0004(5) 0.0033(5) -0.0025(6)
 
#===============================================================================
 
# 10. MOLECULAR GEOMETRY
 
_geom_special_details
;
Bond distances, angles <i>etc</i>. have been calculated using the rounded
fractional coordinates. All su's are estimated from the variances of the
(full) variance-covariance matrix. The cell e.s.d.'s are taken into account in
the estimation of distances, angles and torsion angles
;
 
loop_
_geom_bond_atom_site_label_1
_geom_bond_atom_site_label_2
_geom_bond_distance
_geom_bond_site_symmetry_1
_geom_bond_site_symmetry_2
_geom_bond_publ_flag
 O1      C2       1.4467(16)                     .       .                   no
 O1      C3       1.3650(15)                     .       .                   no
 O2      C3       1.2318(14)                     .       .                   no
 N1      C5       1.3454(16)                     .       .                   no
 N1      C6       1.4592(16)                     .       .                   no
 N1      H1N       0.880(16)                     .       .                   no
 C1      C2       1.5013(19)                     .       .                   no
 C3      C4       1.4277(17)                     .       .                   no
 C4      C5       1.3756(17)                     .       .                   no
 C5      C8       1.4994(17)                     .       .                   no
 C6      C7       1.5182(18)                     .       .                   no
 C7      C7       1.5243(17)                     .     3_555                 no
 C1      H1A          0.9800                     .       .                   no
 C1      H1B          0.9800                     .       .                   no
 C1      H1C          0.9800                     .       .                   no
 C2      H2A          0.9900                     .       .                   no
 C2      H2B          0.9900                     .       .                   no
 C4      H4           0.9500                     .       .                   no
 C6      H6A          0.9900                     .       .                   no
 C6      H6B          0.9900                     .       .                   no
 C7      H7A          0.9900                     .       .                   no
 C7      H7B          0.9900                     .       .                   no
 C8      H8A          0.9800                     .       .                   no
 C8      H8B          0.9800                     .       .                   no
 C8      H8C          0.9800                     .       .                   no
 
loop_
_geom_angle_atom_site_label_1
_geom_angle_atom_site_label_2
_geom_angle_atom_site_label_3
_geom_angle
_geom_angle_site_symmetry_1
_geom_angle_site_symmetry_2
_geom_angle_site_symmetry_3
_geom_angle_publ_flag
 C2      O1      C3        115.78(9)             .       .       .           no
 C5      N1      C6       125.66(11)             .       .       .           no
 C5      N1      H1N       114.3(10)             .       .       .           no
 C6      N1      H1N       120.0(10)             .       .       .           no
 O1      C2      C1       107.56(11)             .       .       .           no
 O1      C3      C4       112.65(10)             .       .       .           no
 O1      C3      O2       120.77(10)             .       .       .           no
 O2      C3      C4       126.58(11)             .       .       .           no
 C3      C4      C5       122.20(11)             .       .       .           no
 N1      C5      C8       117.28(11)             .       .       .           no
 N1      C5      C4       122.64(11)             .       .       .           no
 C4      C5      C8       120.06(11)             .       .       .           no
 N1      C6      C7       110.33(10)             .       .       .           no
 C6      C7      C7       111.40(10)             .       .     3_555         no
 C2      C1      H1A          109.00             .       .       .           no
 C2      C1      H1B          109.00             .       .       .           no
 C2      C1      H1C          109.00             .       .       .           no
 H1A     C1      H1B          109.00             .       .       .           no
 H1A     C1      H1C          109.00             .       .       .           no
 H1B     C1      H1C          109.00             .       .       .           no
 O1      C2      H2A          110.00             .       .       .           no
 O1      C2      H2B          110.00             .       .       .           no
 C1      C2      H2A          110.00             .       .       .           no
 C1      C2      H2B          110.00             .       .       .           no
 H2A     C2      H2B          108.00             .       .       .           no
 C3      C4      H4           119.00             .       .       .           no
 C5      C4      H4           119.00             .       .       .           no
 N1      C6      H6A          110.00             .       .       .           no
 N1      C6      H6B          110.00             .       .       .           no
 C7      C6      H6A          110.00             .       .       .           no
 C7      C6      H6B          110.00             .       .       .           no
 H6A     C6      H6B          108.00             .       .       .           no
 C6      C7      H7A          109.00             .       .       .           no
 C6      C7      H7B          109.00             .       .       .           no
 H7A     C7      H7B          108.00             .       .       .           no
 C7      C7      H7A          109.00           3_555     .       .           no
 C7      C7      H7B          109.00           3_555     .       .           no
 C5      C8      H8A          109.00             .       .       .           no
 C5      C8      H8B          109.00             .       .       .           no
 C5      C8      H8C          109.00             .       .       .           no
 H8A     C8      H8B          109.00             .       .       .           no
 H8A     C8      H8C          109.00             .       .       .           no
 H8B     C8      H8C          110.00             .       .       .           no
 
loop_
_geom_torsion_atom_site_label_1
_geom_torsion_atom_site_label_2
_geom_torsion_atom_site_label_3
_geom_torsion_atom_site_label_4
_geom_torsion
_geom_torsion_site_symmetry_1
_geom_torsion_site_symmetry_2
_geom_torsion_site_symmetry_3
_geom_torsion_site_symmetry_4
_geom_torsion_publ_flag
 C3      O1      C2      C1       178.47(10)     .       .       .       .   no
 C2      O1      C3      O2        -1.34(16)     .       .       .       .   no
 C2      O1      C3      C4       179.00(10)     .       .       .       .   no
 C6      N1      C5      C4      -179.53(11)     .       .       .       .   no
 C6      N1      C5      C8        -1.09(18)     .       .       .       .   no
 C5      N1      C6      C7       167.36(11)     .       .       .       .   no
 O1      C3      C4      C5       176.01(11)     .       .       .       .   no
 O2      C3      C4      C5          -3.6(2)     .       .       .       .   no
 C3      C4      C5      N1         2.77(19)     .       .       .       .   no
 C3      C4      C5      C8      -175.62(11)     .       .       .       .   no
 N1      C6      C7      C7      -179.28(10)     .       .       .     3_555 no
 C6      C7      C7      C6       179.97(16)     .       .     3_555   3_555 no
 
loop_
_geom_hbond_atom_site_label_D
_geom_hbond_atom_site_label_H
_geom_hbond_atom_site_label_A
_geom_hbond_distance_DH
_geom_hbond_distance_HA
_geom_hbond_distance_DA
_geom_hbond_angle_DHA
_geom_hbond_site_symmetry_A
_geom_hbond_publ_flag
#
#D   H   A   D - H  H...A   D...A    D - H...A  symm(A)
#
N1      H1N     O2     0.880(16)  2.000(16) 2.7099(14)  136.9(13)     .   yes
C8      H8C     O2     0.98       2.51      3.4697(16)  167         4_555 yes


 
_diffrn_measured_fraction_theta_max    0.996 
_diffrn_reflns_theta_full              25.00 
_diffrn_measured_fraction_theta_full   0.999 
_refine_diff_density_max    0.150 
_refine_diff_density_min   -0.141 
_refine_diff_density_rms    0.029














